\ Model COACH_C0_R2
\ LP format - for model browsing. Use MPS format to capture full model detail.
\ Signature: 0xecad87c0278fb5
Minimize
 [ 2 weighted_residual[0] ^2 + 2 weighted_residual[1] ^2
   + 2 weighted_residual[2] ^2 + 2 weighted_residual[3] ^2
   + 2 weighted_residual[4] ^2 + 2 weighted_residual[5] ^2
   + 2 weighted_residual[6] ^2 + 2 weighted_residual[7] ^2
   + 2 weighted_residual[8] ^2 + 2 weighted_residual[9] ^2
   + 2 weighted_residual[10] ^2 + 2 weighted_residual[11] ^2
   + 2 weighted_residual[12] ^2 + 2 weighted_residual[13] ^2
   + 2 weighted_residual[14] ^2 + 2 weighted_residual[15] ^2
   + 2 weighted_residual[16] ^2 + 2 weighted_residual[17] ^2
   + 2 weighted_residual[18] ^2 + 2 weighted_residual[19] ^2 ] / 2 
Subject To
 R0: beta[0] - 25 selected[0] <= 0
 R1: beta[0] + 25 selected[0] >= 0
 R2: beta[1] - 25 selected[1] <= 0
 R3: beta[1] + 25 selected[1] >= 0
 R4: beta[2] - 25 selected[2] <= 0
 R5: beta[2] + 25 selected[2] >= 0
 R6: beta[3] - 25 selected[3] <= 0
 R7: beta[3] + 25 selected[3] >= 0
 R8: beta[4] - 25 selected[4] <= 0
 R9: beta[4] + 25 selected[4] >= 0
 R10: beta[5] - 25 selected[5] <= 0
 R11: beta[5] + 25 selected[5] >= 0
 R12: beta[6] - 25 selected[6] <= 0
 R13: beta[6] + 25 selected[6] >= 0
 R14: beta[7] - 25 selected[7] <= 0
 R15: beta[7] + 25 selected[7] >= 0
 R16: beta[8] - 25 selected[8] <= 0
 R17: beta[8] + 25 selected[8] >= 0
 R18: beta[9] - 25 selected[9] <= 0
 R19: beta[9] + 25 selected[9] >= 0
 R20: beta[10] - 25 selected[10] <= 0
 R21: beta[10] + 25 selected[10] >= 0
 R22: beta[11] - 25 selected[11] <= 0
 R23: beta[11] + 25 selected[11] >= 0
 R24: beta[12] - 25 selected[12] <= 0
 R25: beta[12] + 25 selected[12] >= 0
 R26: beta[13] - 25 selected[13] <= 0
 R27: beta[13] + 25 selected[13] >= 0
 R28: beta[14] - 25 selected[14] <= 0
 R29: beta[14] + 25 selected[14] >= 0
 R30: beta[15] - 25 selected[15] <= 0
 R31: beta[15] + 25 selected[15] >= 0
 R32: beta[16] - 25 selected[16] <= 0
 R33: beta[16] + 25 selected[16] >= 0
 R34: beta[17] - 25 selected[17] <= 0
 R35: beta[17] + 25 selected[17] >= 0
 R36: beta[18] - 25 selected[18] <= 0
 R37: beta[18] + 25 selected[18] >= 0
 R38: beta[19] - 25 selected[19] <= 0
 R39: beta[19] + 25 selected[19] >= 0
 R40: beta[20] - 25 selected[20] <= 0
 R41: beta[20] + 25 selected[20] >= 0
 R42: beta[21] - 25 selected[21] <= 0
 R43: beta[21] + 25 selected[21] >= 0
 R44: beta[22] - 25 selected[22] <= 0
 R45: beta[22] + 25 selected[22] >= 0
 R46: beta[23] - 25 selected[23] <= 0
 R47: beta[23] + 25 selected[23] >= 0
 R48: beta[24] - 25 selected[24] <= 0
 R49: beta[24] + 25 selected[24] >= 0
 R50: beta[25] - 25 selected[25] <= 0
 R51: beta[25] + 25 selected[25] >= 0
 R52: beta[26] - 25 selected[26] <= 0
 R53: beta[26] + 25 selected[26] >= 0
 R54: beta[27] - 25 selected[27] <= 0
 R55: beta[27] + 25 selected[27] >= 0
 R56: beta[28] - 25 selected[28] <= 0
 R57: beta[28] + 25 selected[28] >= 0
 R58: beta[29] - 25 selected[29] <= 0
 R59: beta[29] + 25 selected[29] >= 0
 R60: beta[30] - 25 selected[30] <= 0
 R61: beta[30] + 25 selected[30] >= 0
 R62: beta[31] - 25 selected[31] <= 0
 R63: beta[31] + 25 selected[31] >= 0
 R64: beta[32] - 25 selected[32] <= 0
 R65: beta[32] + 25 selected[32] >= 0
 R66: beta[33] - 25 selected[33] <= 0
 R67: beta[33] + 25 selected[33] >= 0
 R68: beta[34] - 25 selected[34] <= 0
 R69: beta[34] + 25 selected[34] >= 0
 R70: beta[35] - 25 selected[35] <= 0
 R71: beta[35] + 25 selected[35] >= 0
 R72: beta[36] - 25 selected[36] <= 0
 R73: beta[36] + 25 selected[36] >= 0
 R74: beta[37] - 25 selected[37] <= 0
 R75: beta[37] + 25 selected[37] >= 0
 R76: beta[38] - 25 selected[38] <= 0
 R77: beta[38] + 25 selected[38] >= 0
 R78: beta[39] - 25 selected[39] <= 0
 R79: beta[39] + 25 selected[39] >= 0
 R80: beta[40] - 25 selected[40] <= 0
 R81: beta[40] + 25 selected[40] >= 0
 R82: beta[41] - 25 selected[41] <= 0
 R83: beta[41] + 25 selected[41] >= 0
 R84: beta[42] - 25 selected[42] <= 0
 R85: beta[42] + 25 selected[42] >= 0
 R86: beta[43] - 25 selected[43] <= 0
 R87: beta[43] + 25 selected[43] >= 0
 R88: beta[44] - 25 selected[44] <= 0
 R89: beta[44] + 25 selected[44] >= 0
 R90: beta[45] - 25 selected[45] <= 0
 R91: beta[45] + 25 selected[45] >= 0
 R92: beta[46] - 25 selected[46] <= 0
 R93: beta[46] + 25 selected[46] >= 0
 R94: beta[47] - 25 selected[47] <= 0
 R95: beta[47] + 25 selected[47] >= 0
 R96: beta[48] - 25 selected[48] <= 0
 R97: beta[48] + 25 selected[48] >= 0
 R98: beta[49] - 25 selected[49] <= 0
 R99: beta[49] + 25 selected[49] >= 0
 R100: beta[50] - 25 selected[50] <= 0
 R101: beta[50] + 25 selected[50] >= 0
 R102: beta[51] - 25 selected[51] <= 0
 R103: beta[51] + 25 selected[51] >= 0
 R104: beta[52] - 25 selected[52] <= 0
 R105: beta[52] + 25 selected[52] >= 0
 R106: beta[53] - 25 selected[53] <= 0
 R107: beta[53] + 25 selected[53] >= 0
 R108: beta[54] - 25 selected[54] <= 0
 R109: beta[54] + 25 selected[54] >= 0
 R110: beta[55] - 25 selected[55] <= 0
 R111: beta[55] + 25 selected[55] >= 0
 R112: beta[56] - 25 selected[56] <= 0
 R113: beta[56] + 25 selected[56] >= 0
 R114: beta[57] - 25 selected[57] <= 0
 R115: beta[57] + 25 selected[57] >= 0
 R116: beta[58] - 25 selected[58] <= 0
 R117: beta[58] + 25 selected[58] >= 0
 R118: beta[59] - 25 selected[59] <= 0
 R119: beta[59] + 25 selected[59] >= 0
 R120: beta[60] - 25 selected[60] <= 0
 R121: beta[60] + 25 selected[60] >= 0
 R122: beta[61] - 25 selected[61] <= 0
 R123: beta[61] + 25 selected[61] >= 0
 R124: beta[62] - 25 selected[62] <= 0
 R125: beta[62] + 25 selected[62] >= 0
 R126: beta[63] - 25 selected[63] <= 0
 R127: beta[63] + 25 selected[63] >= 0
 R128: beta[64] - 25 selected[64] <= 0
 R129: beta[64] + 25 selected[64] >= 0
 R130: beta[65] - 25 selected[65] <= 0
 R131: beta[65] + 25 selected[65] >= 0
 R132: beta[66] - 25 selected[66] <= 0
 R133: beta[66] + 25 selected[66] >= 0
 R134: beta[67] - 25 selected[67] <= 0
 R135: beta[67] + 25 selected[67] >= 0
 R136: beta[68] - 25 selected[68] <= 0
 R137: beta[68] + 25 selected[68] >= 0
 R138: beta[69] - 25 selected[69] <= 0
 R139: beta[69] + 25 selected[69] >= 0
 R140: beta[70] - 25 selected[70] <= 0
 R141: beta[70] + 25 selected[70] >= 0
 R142: beta[71] - 25 selected[71] <= 0
 R143: beta[71] + 25 selected[71] >= 0
 R144: beta[72] - 25 selected[72] <= 0
 R145: beta[72] + 25 selected[72] >= 0
 R146: beta[73] - 25 selected[73] <= 0
 R147: beta[73] + 25 selected[73] >= 0
 R148: beta[74] - 25 selected[74] <= 0
 R149: beta[74] + 25 selected[74] >= 0
 R150: beta[75] - 25 selected[75] <= 0
 R151: beta[75] + 25 selected[75] >= 0
 R152: beta[76] - 25 selected[76] <= 0
 R153: beta[76] + 25 selected[76] >= 0
 R154: beta[77] - 25 selected[77] <= 0
 R155: beta[77] + 25 selected[77] >= 0
 R156: beta[78] - 25 selected[78] <= 0
 R157: beta[78] + 25 selected[78] >= 0
 R158: beta[79] - 25 selected[79] <= 0
 R159: beta[79] + 25 selected[79] >= 0
 R160: beta[80] - 25 selected[80] <= 0
 R161: beta[80] + 25 selected[80] >= 0
 R162: beta[81] - 25 selected[81] <= 0
 R163: beta[81] + 25 selected[81] >= 0
 R164: beta[82] - 25 selected[82] <= 0
 R165: beta[82] + 25 selected[82] >= 0
 R166: beta[83] - 25 selected[83] <= 0
 R167: beta[83] + 25 selected[83] >= 0
 R168: beta[84] - 25 selected[84] <= 0
 R169: beta[84] + 25 selected[84] >= 0
 R170: beta[85] - 25 selected[85] <= 0
 R171: beta[85] + 25 selected[85] >= 0
 R172: beta[86] - 25 selected[86] <= 0
 R173: beta[86] + 25 selected[86] >= 0
 R174: beta[87] - 25 selected[87] <= 0
 R175: beta[87] + 25 selected[87] >= 0
 R176: beta[88] - 25 selected[88] <= 0
 R177: beta[88] + 25 selected[88] >= 0
 R178: beta[89] - 25 selected[89] <= 0
 R179: beta[89] + 25 selected[89] >= 0
 R180: beta[90] - 25 selected[90] <= 0
 R181: beta[90] + 25 selected[90] >= 0
 R182: beta[91] - 25 selected[91] <= 0
 R183: beta[91] + 25 selected[91] >= 0
 R184: beta[92] - 25 selected[92] <= 0
 R185: beta[92] + 25 selected[92] >= 0
 R186: beta[93] - 25 selected[93] <= 0
 R187: beta[93] + 25 selected[93] >= 0
 R188: beta[94] - 25 selected[94] <= 0
 R189: beta[94] + 25 selected[94] >= 0
 R190: beta[95] - 25 selected[95] <= 0
 R191: beta[95] + 25 selected[95] >= 0
 R192: beta[96] - 25 selected[96] <= 0
 R193: beta[96] + 25 selected[96] >= 0
 R194: beta[97] - 25 selected[97] <= 0
 R195: beta[97] + 25 selected[97] >= 0
 R196: beta[98] - 25 selected[98] <= 0
 R197: beta[98] + 25 selected[98] >= 0
 R198: beta[99] - 25 selected[99] <= 0
 R199: beta[99] + 25 selected[99] >= 0
 R200: beta[100] - 25 selected[100] <= 0
 R201: beta[100] + 25 selected[100] >= 0
 R202: beta[101] - 25 selected[101] <= 0
 R203: beta[101] + 25 selected[101] >= 0
 R204: beta[102] - 25 selected[102] <= 0
 R205: beta[102] + 25 selected[102] >= 0
 R206: beta[103] - 25 selected[103] <= 0
 R207: beta[103] + 25 selected[103] >= 0
 R208: beta[104] - 25 selected[104] <= 0
 R209: beta[104] + 25 selected[104] >= 0
 R210: beta[105] - 25 selected[105] <= 0
 R211: beta[105] + 25 selected[105] >= 0
 R212: beta[106] - 25 selected[106] <= 0
 R213: beta[106] + 25 selected[106] >= 0
 R214: beta[107] - 25 selected[107] <= 0
 R215: beta[107] + 25 selected[107] >= 0
 R216: beta[108] - 25 selected[108] <= 0
 R217: beta[108] + 25 selected[108] >= 0
 R218: beta[109] - 25 selected[109] <= 0
 R219: beta[109] + 25 selected[109] >= 0
 R220: beta[110] - 25 selected[110] <= 0
 R221: beta[110] + 25 selected[110] >= 0
 R222: beta[111] - 25 selected[111] <= 0
 R223: beta[111] + 25 selected[111] >= 0
 R224: beta[112] - 25 selected[112] <= 0
 R225: beta[112] + 25 selected[112] >= 0
 R226: beta[113] - 25 selected[113] <= 0
 R227: beta[113] + 25 selected[113] >= 0
 R228: beta[114] - 25 selected[114] <= 0
 R229: beta[114] + 25 selected[114] >= 0
 R230: beta[115] - 25 selected[115] <= 0
 R231: beta[115] + 25 selected[115] >= 0
 R232: beta[116] - 25 selected[116] <= 0
 R233: beta[116] + 25 selected[116] >= 0
 R234: beta[117] - 25 selected[117] <= 0
 R235: beta[117] + 25 selected[117] >= 0
 R236: beta[118] - 25 selected[118] <= 0
 R237: beta[118] + 25 selected[118] >= 0
 R238: beta[119] - 25 selected[119] <= 0
 R239: beta[119] + 25 selected[119] >= 0
 R240: beta[120] - 25 selected[120] <= 0
 R241: beta[120] + 25 selected[120] >= 0
 R242: beta[121] - 25 selected[121] <= 0
 R243: beta[121] + 25 selected[121] >= 0
 R244: beta[122] - 25 selected[122] <= 0
 R245: beta[122] + 25 selected[122] >= 0
 R246: beta[123] - 25 selected[123] <= 0
 R247: beta[123] + 25 selected[123] >= 0
 R248: beta[124] - 25 selected[124] <= 0
 R249: beta[124] + 25 selected[124] >= 0
 R250: beta[125] - 25 selected[125] <= 0
 R251: beta[125] + 25 selected[125] >= 0
 R252: beta[126] - 25 selected[126] <= 0
 R253: beta[126] + 25 selected[126] >= 0
 R254: beta[127] - 25 selected[127] <= 0
 R255: beta[127] + 25 selected[127] >= 0
 R256: beta[128] - 25 selected[128] <= 0
 R257: beta[128] + 25 selected[128] >= 0
 R258: beta[129] - 25 selected[129] <= 0
 R259: beta[129] + 25 selected[129] >= 0
 R260: beta[130] - 25 selected[130] <= 0
 R261: beta[130] + 25 selected[130] >= 0
 R262: beta[131] - 25 selected[131] <= 0
 R263: beta[131] + 25 selected[131] >= 0
 R264: beta[132] - 25 selected[132] <= 0
 R265: beta[132] + 25 selected[132] >= 0
 R266: beta[133] - 25 selected[133] <= 0
 R267: beta[133] + 25 selected[133] >= 0
 R268: beta[134] - 25 selected[134] <= 0
 R269: beta[134] + 25 selected[134] >= 0
 R270: beta[135] - 25 selected[135] <= 0
 R271: beta[135] + 25 selected[135] >= 0
 R272: beta[136] - 25 selected[136] <= 0
 R273: beta[136] + 25 selected[136] >= 0
 R274: beta[137] - 25 selected[137] <= 0
 R275: beta[137] + 25 selected[137] >= 0
 R276: beta[138] - 25 selected[138] <= 0
 R277: beta[138] + 25 selected[138] >= 0
 R278: beta[139] - 25 selected[139] <= 0
 R279: beta[139] + 25 selected[139] >= 0
 R280: beta[140] - 25 selected[140] <= 0
 R281: beta[140] + 25 selected[140] >= 0
 R282: beta[141] - 25 selected[141] <= 0
 R283: beta[141] + 25 selected[141] >= 0
 R284: beta[142] - 25 selected[142] <= 0
 R285: beta[142] + 25 selected[142] >= 0
 R286: beta[143] - 25 selected[143] <= 0
 R287: beta[143] + 25 selected[143] >= 0
 R288: beta[144] - 25 selected[144] <= 0
 R289: beta[144] + 25 selected[144] >= 0
 R290: beta[145] - 25 selected[145] <= 0
 R291: beta[145] + 25 selected[145] >= 0
 R292: beta[146] - 25 selected[146] <= 0
 R293: beta[146] + 25 selected[146] >= 0
 R294: beta[147] - 25 selected[147] <= 0
 R295: beta[147] + 25 selected[147] >= 0
 R296: beta[148] - 25 selected[148] <= 0
 R297: beta[148] + 25 selected[148] >= 0
 R298: beta[149] - 25 selected[149] <= 0
 R299: beta[149] + 25 selected[149] >= 0
 R300: beta[150] - 25 selected[150] <= 0
 R301: beta[150] + 25 selected[150] >= 0
 R302: beta[151] - 25 selected[151] <= 0
 R303: beta[151] + 25 selected[151] >= 0
 R304: beta[152] - 25 selected[152] <= 0
 R305: beta[152] + 25 selected[152] >= 0
 R306: beta[153] - 25 selected[153] <= 0
 R307: beta[153] + 25 selected[153] >= 0
 R308: beta[154] - 25 selected[154] <= 0
 R309: beta[154] + 25 selected[154] >= 0
 R310: beta[155] - 25 selected[155] <= 0
 R311: beta[155] + 25 selected[155] >= 0
 R312: beta[156] - 25 selected[156] <= 0
 R313: beta[156] + 25 selected[156] >= 0
 R314: beta[157] - 25 selected[157] <= 0
 R315: beta[157] + 25 selected[157] >= 0
 R316: beta[158] - 25 selected[158] <= 0
 R317: beta[158] + 25 selected[158] >= 0
 R318: beta[159] - 25 selected[159] <= 0
 R319: beta[159] + 25 selected[159] >= 0
 R320: beta[160] - 25 selected[160] <= 0
 R321: beta[160] + 25 selected[160] >= 0
 R322: beta[161] - 25 selected[161] <= 0
 R323: beta[161] + 25 selected[161] >= 0
 R324: beta[162] - 25 selected[162] <= 0
 R325: beta[162] + 25 selected[162] >= 0
 R326: beta[163] - 25 selected[163] <= 0
 R327: beta[163] + 25 selected[163] >= 0
 R328: beta[164] - 25 selected[164] <= 0
 R329: beta[164] + 25 selected[164] >= 0
 R330: beta[165] - 25 selected[165] <= 0
 R331: beta[165] + 25 selected[165] >= 0
 R332: beta[166] - 25 selected[166] <= 0
 R333: beta[166] + 25 selected[166] >= 0
 R334: beta[167] - 25 selected[167] <= 0
 R335: beta[167] + 25 selected[167] >= 0
 R336: beta[168] - 25 selected[168] <= 0
 R337: beta[168] + 25 selected[168] >= 0
 R338: beta[169] - 25 selected[169] <= 0
 R339: beta[169] + 25 selected[169] >= 0
 R340: beta[170] - 25 selected[170] <= 0
 R341: beta[170] + 25 selected[170] >= 0
 R342: beta[171] - 25 selected[171] <= 0
 R343: beta[171] + 25 selected[171] >= 0
 R344: beta[172] - 25 selected[172] <= 0
 R345: beta[172] + 25 selected[172] >= 0
 R346: beta[173] - 25 selected[173] <= 0
 R347: beta[173] + 25 selected[173] >= 0
 R348: beta[174] - 25 selected[174] <= 0
 R349: beta[174] + 25 selected[174] >= 0
 R350: beta[175] - 25 selected[175] <= 0
 R351: beta[175] + 25 selected[175] >= 0
 R352: beta[176] - 25 selected[176] <= 0
 R353: beta[176] + 25 selected[176] >= 0
 R354: beta[177] - 25 selected[177] <= 0
 R355: beta[177] + 25 selected[177] >= 0
 R356: beta[178] - 25 selected[178] <= 0
 R357: beta[178] + 25 selected[178] >= 0
 R358: beta[179] - 25 selected[179] <= 0
 R359: beta[179] + 25 selected[179] >= 0
 R360: beta[180] - 25 selected[180] <= 0
 R361: beta[180] + 25 selected[180] >= 0
 R362: beta[181] - 25 selected[181] <= 0
 R363: beta[181] + 25 selected[181] >= 0
 R364: beta[182] - 25 selected[182] <= 0
 R365: beta[182] + 25 selected[182] >= 0
 R366: beta[183] - 25 selected[183] <= 0
 R367: beta[183] + 25 selected[183] >= 0
 R368: beta[184] - 25 selected[184] <= 0
 R369: beta[184] + 25 selected[184] >= 0
 R370: beta[185] - 25 selected[185] <= 0
 R371: beta[185] + 25 selected[185] >= 0
 R372: beta[186] - 25 selected[186] <= 0
 R373: beta[186] + 25 selected[186] >= 0
 R374: beta[187] - 25 selected[187] <= 0
 R375: beta[187] + 25 selected[187] >= 0
 R376: beta[188] - 25 selected[188] <= 0
 R377: beta[188] + 25 selected[188] >= 0
 R378: beta[189] - 25 selected[189] <= 0
 R379: beta[189] + 25 selected[189] >= 0
 R380: beta[190] - 25 selected[190] <= 0
 R381: beta[190] + 25 selected[190] >= 0
 R382: beta[191] - 25 selected[191] <= 0
 R383: beta[191] + 25 selected[191] >= 0
 R384: beta[192] - 25 selected[192] <= 0
 R385: beta[192] + 25 selected[192] >= 0
 R386: beta[193] - 25 selected[193] <= 0
 R387: beta[193] + 25 selected[193] >= 0
 R388: beta[194] - 25 selected[194] <= 0
 R389: beta[194] + 25 selected[194] >= 0
 R390: beta[195] - 25 selected[195] <= 0
 R391: beta[195] + 25 selected[195] >= 0
 R392: beta[196] - 25 selected[196] <= 0
 R393: beta[196] + 25 selected[196] >= 0
 R394: beta[197] - 25 selected[197] <= 0
 R395: beta[197] + 25 selected[197] >= 0
 R396: beta[198] - 25 selected[198] <= 0
 R397: beta[198] + 25 selected[198] >= 0
 R398: beta[199] - 25 selected[199] <= 0
 R399: beta[199] + 25 selected[199] >= 0
 R400: beta[200] - 25 selected[200] <= 0
 R401: beta[200] + 25 selected[200] >= 0
 R402: beta[201] - 25 selected[201] <= 0
 R403: beta[201] + 25 selected[201] >= 0
 R404: beta[202] - 25 selected[202] <= 0
 R405: beta[202] + 25 selected[202] >= 0
 R406: beta[203] - 25 selected[203] <= 0
 R407: beta[203] + 25 selected[203] >= 0
 R408: beta[204] - 25 selected[204] <= 0
 R409: beta[204] + 25 selected[204] >= 0
 R410: beta[205] - 25 selected[205] <= 0
 R411: beta[205] + 25 selected[205] >= 0
 R412: beta[206] - 25 selected[206] <= 0
 R413: beta[206] + 25 selected[206] >= 0
 R414: beta[207] - 25 selected[207] <= 0
 R415: beta[207] + 25 selected[207] >= 0
 R416: beta[208] - 25 selected[208] <= 0
 R417: beta[208] + 25 selected[208] >= 0
 R418: beta[209] - 25 selected[209] <= 0
 R419: beta[209] + 25 selected[209] >= 0
 R420: beta[210] - 25 selected[210] <= 0
 R421: beta[210] + 25 selected[210] >= 0
 R422: beta[211] - 25 selected[211] <= 0
 R423: beta[211] + 25 selected[211] >= 0
 R424: beta[212] - 25 selected[212] <= 0
 R425: beta[212] + 25 selected[212] >= 0
 R426: beta[213] - 25 selected[213] <= 0
 R427: beta[213] + 25 selected[213] >= 0
 R428: beta[214] - 25 selected[214] <= 0
 R429: beta[214] + 25 selected[214] >= 0
 R430: beta[215] - 25 selected[215] <= 0
 R431: beta[215] + 25 selected[215] >= 0
 R432: beta[216] - 25 selected[216] <= 0
 R433: beta[216] + 25 selected[216] >= 0
 R434: beta[217] - 25 selected[217] <= 0
 R435: beta[217] + 25 selected[217] >= 0
 R436: beta[218] - 25 selected[218] <= 0
 R437: beta[218] + 25 selected[218] >= 0
 R438: beta[219] - 25 selected[219] <= 0
 R439: beta[219] + 25 selected[219] >= 0
 R440: beta[220] - 25 selected[220] <= 0
 R441: beta[220] + 25 selected[220] >= 0
 R442: beta[221] - 25 selected[221] <= 0
 R443: beta[221] + 25 selected[221] >= 0
 R444: beta[222] - 25 selected[222] <= 0
 R445: beta[222] + 25 selected[222] >= 0
 R446: beta[223] - 25 selected[223] <= 0
 R447: beta[223] + 25 selected[223] >= 0
 R448: beta[224] - 25 selected[224] <= 0
 R449: beta[224] + 25 selected[224] >= 0
 R450: beta[225] - 25 selected[225] <= 0
 R451: beta[225] + 25 selected[225] >= 0
 R452: beta[226] - 25 selected[226] <= 0
 R453: beta[226] + 25 selected[226] >= 0
 R454: beta[227] - 25 selected[227] <= 0
 R455: beta[227] + 25 selected[227] >= 0
 R456: beta[228] - 25 selected[228] <= 0
 R457: beta[228] + 25 selected[228] >= 0
 R458: beta[229] - 25 selected[229] <= 0
 R459: beta[229] + 25 selected[229] >= 0
 R460: beta[230] - 25 selected[230] <= 0
 R461: beta[230] + 25 selected[230] >= 0
 R462: beta[231] - 25 selected[231] <= 0
 R463: beta[231] + 25 selected[231] >= 0
 R464: beta[232] - 25 selected[232] <= 0
 R465: beta[232] + 25 selected[232] >= 0
 R466: beta[233] - 25 selected[233] <= 0
 R467: beta[233] + 25 selected[233] >= 0
 R468: beta[234] - 25 selected[234] <= 0
 R469: beta[234] + 25 selected[234] >= 0
 R470: beta[235] - 25 selected[235] <= 0
 R471: beta[235] + 25 selected[235] >= 0
 R472: beta[236] - 25 selected[236] <= 0
 R473: beta[236] + 25 selected[236] >= 0
 R474: beta[237] - 25 selected[237] <= 0
 R475: beta[237] + 25 selected[237] >= 0
 R476: beta[238] - 25 selected[238] <= 0
 R477: beta[238] + 25 selected[238] >= 0
 R478: beta[239] - 25 selected[239] <= 0
 R479: beta[239] + 25 selected[239] >= 0
 R480: beta[240] - 25 selected[240] <= 0
 R481: beta[240] + 25 selected[240] >= 0
 R482: beta[241] - 25 selected[241] <= 0
 R483: beta[241] + 25 selected[241] >= 0
 R484: beta[242] - 25 selected[242] <= 0
 R485: beta[242] + 25 selected[242] >= 0
 R486: beta[243] - 25 selected[243] <= 0
 R487: beta[243] + 25 selected[243] >= 0
 R488: beta[244] - 25 selected[244] <= 0
 R489: beta[244] + 25 selected[244] >= 0
 R490: beta[245] - 25 selected[245] <= 0
 R491: beta[245] + 25 selected[245] >= 0
 R492: beta[246] - 25 selected[246] <= 0
 R493: beta[246] + 25 selected[246] >= 0
 R494: beta[247] - 25 selected[247] <= 0
 R495: beta[247] + 25 selected[247] >= 0
 R496: beta[248] - 25 selected[248] <= 0
 R497: beta[248] + 25 selected[248] >= 0
 R498: beta[249] - 25 selected[249] <= 0
 R499: beta[249] + 25 selected[249] >= 0
 R500: beta[250] - 25 selected[250] <= 0
 R501: beta[250] + 25 selected[250] >= 0
 R502: beta[251] - 25 selected[251] <= 0
 R503: beta[251] + 25 selected[251] >= 0
 R504: beta[252] - 25 selected[252] <= 0
 R505: beta[252] + 25 selected[252] >= 0
 R506: beta[253] - 25 selected[253] <= 0
 R507: beta[253] + 25 selected[253] >= 0
 R508: beta[254] - 25 selected[254] <= 0
 R509: beta[254] + 25 selected[254] >= 0
 R510: beta[255] - 25 selected[255] <= 0
 R511: beta[255] + 25 selected[255] >= 0
 R512: beta[256] - 25 selected[256] <= 0
 R513: beta[256] + 25 selected[256] >= 0
 R514: beta[257] - 25 selected[257] <= 0
 R515: beta[257] + 25 selected[257] >= 0
 R516: beta[258] - 25 selected[258] <= 0
 R517: beta[258] + 25 selected[258] >= 0
 R518: beta[259] - 25 selected[259] <= 0
 R519: beta[259] + 25 selected[259] >= 0
 R520: beta[260] - 25 selected[260] <= 0
 R521: beta[260] + 25 selected[260] >= 0
 R522: beta[261] - 25 selected[261] <= 0
 R523: beta[261] + 25 selected[261] >= 0
 R524: beta[262] - 25 selected[262] <= 0
 R525: beta[262] + 25 selected[262] >= 0
 R526: beta[263] - 25 selected[263] <= 0
 R527: beta[263] + 25 selected[263] >= 0
 R528: beta[264] - 25 selected[264] <= 0
 R529: beta[264] + 25 selected[264] >= 0
 R530: beta[265] - 25 selected[265] <= 0
 R531: beta[265] + 25 selected[265] >= 0
 R532: beta[266] - 25 selected[266] <= 0
 R533: beta[266] + 25 selected[266] >= 0
 R534: beta[267] - 25 selected[267] <= 0
 R535: beta[267] + 25 selected[267] >= 0
 R536: beta[268] - 25 selected[268] <= 0
 R537: beta[268] + 25 selected[268] >= 0
 R538: beta[269] - 25 selected[269] <= 0
 R539: beta[269] + 25 selected[269] >= 0
 R540: beta[270] - 25 selected[270] <= 0
 R541: beta[270] + 25 selected[270] >= 0
 R542: beta[271] - 25 selected[271] <= 0
 R543: beta[271] + 25 selected[271] >= 0
 R544: beta[272] - 25 selected[272] <= 0
 R545: beta[272] + 25 selected[272] >= 0
 R546: beta[273] - 25 selected[273] <= 0
 R547: beta[273] + 25 selected[273] >= 0
 R548: beta[274] - 25 selected[274] <= 0
 R549: beta[274] + 25 selected[274] >= 0
 R550: beta[275] - 25 selected[275] <= 0
 R551: beta[275] + 25 selected[275] >= 0
 R552: beta[276] - 25 selected[276] <= 0
 R553: beta[276] + 25 selected[276] >= 0
 R554: beta[277] - 25 selected[277] <= 0
 R555: beta[277] + 25 selected[277] >= 0
 R556: beta[278] - 25 selected[278] <= 0
 R557: beta[278] + 25 selected[278] >= 0
 R558: beta[279] - 25 selected[279] <= 0
 R559: beta[279] + 25 selected[279] >= 0
 R560: beta[280] - 25 selected[280] <= 0
 R561: beta[280] + 25 selected[280] >= 0
 R562: beta[281] - 25 selected[281] <= 0
 R563: beta[281] + 25 selected[281] >= 0
 R564: beta[282] - 25 selected[282] <= 0
 R565: beta[282] + 25 selected[282] >= 0
 R566: beta[283] - 25 selected[283] <= 0
 R567: beta[283] + 25 selected[283] >= 0
 R568: beta[284] - 25 selected[284] <= 0
 R569: beta[284] + 25 selected[284] >= 0
 R570: beta[285] - 25 selected[285] <= 0
 R571: beta[285] + 25 selected[285] >= 0
 R572: beta[286] - 25 selected[286] <= 0
 R573: beta[286] + 25 selected[286] >= 0
 R574: beta[287] - 25 selected[287] <= 0
 R575: beta[287] + 25 selected[287] >= 0
 R576: beta[288] - 25 selected[288] <= 0
 R577: beta[288] + 25 selected[288] >= 0
 R578: beta[289] - 25 selected[289] <= 0
 R579: beta[289] + 25 selected[289] >= 0
 R580: beta[290] - 25 selected[290] <= 0
 R581: beta[290] + 25 selected[290] >= 0
 R582: beta[291] - 25 selected[291] <= 0
 R583: beta[291] + 25 selected[291] >= 0
 R584: selected[288] = 1
 R585: selected[289] = 1
 R586: selected[290] = 1
 R587: selected[291] = 1
 support_budget: selected[0] + selected[1] + selected[2] + selected[3]
   + selected[4] + selected[5] + selected[6] + selected[7] + selected[8]
   + selected[9] + selected[10] + selected[11] + selected[12]
   + selected[13] + selected[14] + selected[15] + selected[16]
   + selected[17] + selected[18] + selected[19] + selected[20]
   + selected[21] + selected[22] + selected[23] + selected[24]
   + selected[25] + selected[26] + selected[27] + selected[28]
   + selected[29] + selected[30] + selected[31] + selected[32]
   + selected[33] + selected[34] + selected[35] + selected[36]
   + selected[37] + selected[38] + selected[39] + selected[40]
   + selected[41] + selected[42] + selected[43] + selected[44]
   + selected[45] + selected[46] + selected[47] + selected[48]
   + selected[49] + selected[50] + selected[51] + selected[52]
   + selected[53] + selected[54] + selected[55] + selected[56]
   + selected[57] + selected[58] + selected[59] + selected[60]
   + selected[61] + selected[62] + selected[63] + selected[64]
   + selected[65] + selected[66] + selected[67] + selected[68]
   + selected[69] + selected[70] + selected[71] + selected[72]
   + selected[73] + selected[74] + selected[75] + selected[76]
   + selected[77] + selected[78] + selected[79] + selected[80]
   + selected[81] + selected[82] + selected[83] + selected[84]
   + selected[85] + selected[86] + selected[87] + selected[88]
   + selected[89] + selected[90] + selected[91] + selected[92]
   + selected[93] + selected[94] + selected[95] + selected[96]
   + selected[97] + selected[98] + selected[99] + selected[100]
   + selected[101] + selected[102] + selected[103] + selected[104]
   + selected[105] + selected[106] + selected[107] + selected[108]
   + selected[109] + selected[110] + selected[111] + selected[112]
   + selected[113] + selected[114] + selected[115] + selected[116]
   + selected[117] + selected[118] + selected[119] + selected[120]
   + selected[121] + selected[122] + selected[123] + selected[124]
   + selected[125] + selected[126] + selected[127] + selected[128]
   + selected[129] + selected[130] + selected[131] + selected[132]
   + selected[133] + selected[134] + selected[135] + selected[136]
   + selected[137] + selected[138] + selected[139] + selected[140]
   + selected[141] + selected[142] + selected[143] + selected[144]
   + selected[145] + selected[146] + selected[147] + selected[148]
   + selected[149] + selected[150] + selected[151] + selected[152]
   + selected[153] + selected[154] + selected[155] + selected[156]
   + selected[157] + selected[158] + selected[159] + selected[160]
   + selected[161] + selected[162] + selected[163] + selected[164]
   + selected[165] + selected[166] + selected[167] + selected[168]
   + selected[169] + selected[170] + selected[171] + selected[172]
   + selected[173] + selected[174] + selected[175] + selected[176]
   + selected[177] + selected[178] + selected[179] + selected[180]
   + selected[181] + selected[182] + selected[183] + selected[184]
   + selected[185] + selected[186] + selected[187] + selected[188]
   + selected[189] + selected[190] + selected[191] + selected[192]
   + selected[193] + selected[194] + selected[195] + selected[196]
   + selected[197] + selected[198] + selected[199] + selected[200]
   + selected[201] + selected[202] + selected[203] + selected[204]
   + selected[205] + selected[206] + selected[207] + selected[208]
   + selected[209] + selected[210] + selected[211] + selected[212]
   + selected[213] + selected[214] + selected[215] + selected[216]
   + selected[217] + selected[218] + selected[219] + selected[220]
   + selected[221] + selected[222] + selected[223] + selected[224]
   + selected[225] + selected[226] + selected[227] + selected[228]
   + selected[229] + selected[230] + selected[231] + selected[232]
   + selected[233] + selected[234] + selected[235] + selected[236]
   + selected[237] + selected[238] + selected[239] + selected[240]
   + selected[241] + selected[242] + selected[243] + selected[244]
   + selected[245] + selected[246] + selected[247] + selected[248]
   + selected[249] + selected[250] + selected[251] + selected[252]
   + selected[253] + selected[254] + selected[255] + selected[256]
   + selected[257] + selected[258] + selected[259] + selected[260]
   + selected[261] + selected[262] + selected[263] + selected[264]
   + selected[265] + selected[266] + selected[267] + selected[268]
   + selected[269] + selected[270] + selected[271] + selected[272]
   + selected[273] + selected[274] + selected[275] + selected[276]
   + selected[277] + selected[278] + selected[279] + selected[280]
   + selected[281] + selected[282] + selected[283] + selected[284]
   + selected[285] + selected[286] + selected[287] + selected[288]
   + selected[289] + selected[290] + selected[291] <= 14
 UEG_exchange: beta[0] - 0.5 beta[16] + 0.375 beta[32] - 0.3125 beta[48]
   + 0.2734375 beta[64] - 0.24609375 beta[80] + beta[288] = 1
 R590: - 0.2522016449708661 beta[0] - 0.0155853769718576 beta[1]
   + 0.00406400943990683 beta[2] + 0.00305476031777199 beta[3]
   + 0.00123717480295198 beta[4] + 3.6007846028232891e-04 beta[5]
   + 3.61633e-05 beta[6] - 5.871e-05 beta[7] + 0.1838898055741412 beta[8]
   - 0.00171320471192724 beta[9] - 0.00475209 beta[10]
   - 0.00202608376591404 beta[11] - 6.3014939056024873e-04 beta[12]
   - 1.1558553089960588e-04 beta[13] + 3.97479e-05 beta[14]
   + 7.08431e-05 beta[15] - 0.0708889380018726 beta[16]
   + 0.0277034250170452 beta[17] + 0.00723640169416135 beta[18]
   + 0.0014376666716172 beta[19] + 1.6316953092352336e-04 beta[20]
   - 6.50682e-05 beta[21] - 7.74903e-05 beta[22] - 5.71856e-05 beta[23]
   - 0.0788922763642631 beta[24] - 0.0457270406697437 beta[25]
   - 0.00934875639247356 beta[26] - 0.00160277301414148 beta[27]
   - 1.9020982240763171e-04 beta[28] + 1.02777e-05 beta[29]
   + 1.37947e-05 beta[30] + 9.02583e-07 beta[31]
   + 0.2652692465935985 beta[32] + 0.0465493565106658 beta[33]
   + 0.00791024900277478 beta[34] + 0.00140971449316671 beta[35]
   + 3.1037929935654249e-04 beta[36] + 0.000123323 beta[37]
   + 8.22147e-05 beta[38] + 6.29007e-05 beta[39]
   - 0.3098080119379959 beta[40] - 0.0276603813705324 beta[41]
   - 0.0027381620821896 beta[42] - 2.4454029353596974e-04 beta[43]
   - 1.0244652702252543e-04 beta[44] - 1.1601234934756456e-04 beta[45]
   - 0.000104804 beta[46] - 8.32454e-05 beta[47]
   + 0.0995959308907712 beta[48] - 0.00532280065116081 beta[49]
   - 0.00403197866981473 beta[50] - 0.00145988648359379 beta[51]
   - 4.0850389904083782e-04 beta[52] - 6.95774e-05 beta[53]
   + 2.3402e-05 beta[54] + 4.18903e-05 beta[55]
   - 0.0416038101113587 beta[56] + 0.0194860547477454 beta[57]
   + 0.00830487583349249 beta[58] + 0.00280920047993307 beta[59]
   + 9.2914710413805361e-04 beta[60] + 3.1732958525332094e-04 beta[61]
   + 1.1164013595653093e-04 beta[62] + 3.77471e-05 beta[63]
   + 0.4374950032615146 beta[64] + 0.0107035768702284 beta[65]
   - 0.0061547489956377 beta[66] - 0.00288582199211854 beta[67]
   - 0.00113391573256283 beta[68] - 0.000475452 beta[69]
   - 2.2108761897024625e-04 beta[70] - 0.000112115 beta[71]
   - 0.8125932876413977 beta[72] - 0.0550737222774047 beta[73]
   - 9.0429074366591409e-04 beta[74] + 0.00148176697952402 beta[75]
   + 8.4103447260341739e-04 beta[76] + 4.3642883696487348e-04 beta[77]
   + 2.4077059593112171e-04 beta[78] + 1.4163946593774262e-04 beta[79]
   + 0.7641039156518246 beta[80] + 0.0733118867587153 beta[81]
   + 0.00728172106655232 beta[82] + 5.317702627791012e-04 beta[83]
   - 0.00017448 beta[84] - 2.0014317399398213e-04 beta[85]
   - 1.5262451805381428e-04 beta[86] - 1.0896225272935867e-04 beta[87]
   - 0.5407307978795963 beta[88] - 0.0641679087516357 beta[89]
   - 0.00948029347775761 beta[90] - 0.00198478474026906 beta[91]
   - 0.000505547 beta[92] - 1.1662572033317003e-04 beta[93]
   - 2.97587e-06 beta[94] + 2.81412e-05 beta[95]
   + 0.0116581467647352 beta[96] - 3.0917466903287815e-04 beta[97]
   - 5.033633487445011e-04 beta[98] - 2.4103418516550963e-04 beta[99]
   - 1.2723078789949533e-04 beta[100] - 8.4029e-05 beta[101]
   - 6.61778e-05 beta[102] - 5.68887e-05 beta[103] + 4.20098e-05 beta[104]
   + 9.1976534882575193e-04 beta[105] + 5.0125819422594845e-04 beta[106]
   + 2.595133500837896e-04 beta[107] + 1.5112764445381088e-04 beta[108]
   + 0.000100337 beta[109] + 7.38671e-05 beta[110] + 5.82492e-05 beta[111]
   - 0.00726001899253459 beta[112] - 5.9385044519834427e-04 beta[113]
   - 1.3704438948312903e-04 beta[114] - 9.76599e-05 beta[115]
   - 7.74774e-05 beta[116] - 6.02086e-05 beta[117] - 4.66104e-05 beta[118]
   - 3.64763e-05 beta[119] + 0.00388075445055502 beta[120]
   - 6.7366652116648417e-04 beta[121] - 4.34020476861859e-04 beta[122]
   - 0.000196654 beta[123] - 8.95299e-05 beta[124] - 4.32602e-05 beta[125]
   - 2.26654e-05 beta[126] - 1.30273e-05 beta[127]
   + 0.00639535485938489 beta[128] + 0.00200453142445895 beta[129]
   + 7.9561521641353093e-04 beta[130] + 3.8536532287303206e-04 beta[131]
   + 2.1370448374472901e-04 beta[132] + 1.310098162785341e-04 beta[133]
   + 8.67203e-05 beta[134] + 6.09382e-05 beta[135]
   - 0.0108279607117306 beta[136] - 0.0018690793835201 beta[137]
   - 0.000641388 beta[138] - 3.2997488400389468e-04 beta[139]
   - 2.0411212001499737e-04 beta[140] - 1.3908245744432445e-04 beta[141]
   - 0.000100512 beta[142] - 7.55997e-05 beta[143]
   - 0.003879808802427 beta[144] - 0.00113227504265389 beta[145]
   - 0.000209406 beta[146] + 8.51587e-06 beta[147] + 5.54764e-05 beta[148]
   + 6.0521e-05 beta[149] + 5.52534e-05 beta[150] + 4.80101e-05 beta[151]
   + 0.0180136904456027 beta[152] + 0.00387257276560639 beta[153]
   + 0.00111800120160086 beta[154] + 3.9508852219021114e-04 beta[155]
   + 1.5722839915526592e-04 beta[156] + 6.57643e-05 beta[157]
   + 2.64075e-05 beta[158] + 8.0825e-06 beta[159]
   - 0.00534828294902017 beta[160] - 0.00222040024365434 beta[161]
   - 0.00104182273235239 beta[162] - 5.2270244152561045e-04 beta[163]
   - 2.8075149039600151e-04 beta[164] - 1.613071741945378e-04 beta[165]
   - 9.82838e-05 beta[166] - 6.27629e-05 beta[167]
   - 0.0127435173908196 beta[168] - 0.00126114149368102 beta[169]
   + 1.4639343122185505e-04 beta[170] + 2.6743732043532225e-04 beta[171]
   + 0.000215914 beta[172] + 1.5761919793130626e-04 beta[173]
   + 1.1407362289130633e-04 beta[174] + 8.37279e-05 beta[175]
   + 0.0101493080838306 beta[176] + 0.00245215509682117 beta[177]
   + 6.1215028606250376e-04 beta[178] + 1.155217981526847e-04 beta[179]
   - 2.56646e-05 beta[180] - 6.15159e-05 beta[181] - 6.49167e-05 beta[182]
   - 5.88289e-05 beta[183] - 9.300094912679317e-04 beta[184]
   - 0.00188223314928874 beta[185] - 8.3890917086633832e-04 beta[186]
   - 3.5482971419121347e-04 beta[187] - 1.472011156994302e-04 beta[188]
   - 5.53453e-05 beta[189] - 1.34645e-05 beta[190] + 5.77276e-06 beta[191]
   - 0.00311292910454243 beta[192] - 0.00214868732682559 beta[193]
   + 5.8324147715687117e-04 beta[194] + 0.00265583622035191 beta[195]
   + 6.8734433052926465e-04 beta[196] - 0.0028657953946189 beta[197]
   - 0.00195456156891613 beta[198] + 0.00277038249963882 beta[199]
   - 0.00845288273770085 beta[200] + 6.8337568393819531e-04 beta[201]
   + 0.00468720525701493 beta[202] - 0.000622392 beta[203]
   - 0.00379886801806109 beta[204] + 6.5870278930081649e-04 beta[205]
   + 0.00352038503795095 beta[206] - 7.6933670085016265e-04 beta[207]
   - 0.0145135928766824 beta[208] - 4.88128e-06 beta[209]
   + 0.00727265040797002 beta[210] - 0.000213775 beta[211]
   - 0.00592271199488139 beta[212] + 5.6777e-05 beta[213]
   + 0.0054994477108251 beta[214] + 5.0137379482894468e-04 beta[215]
   - 0.00215339766352972 beta[216] - 8.4798478005928667e-04 beta[217]
   + 8.9403147753490256e-04 beta[218] + 0.00140892321401671 beta[219]
   + 4.43925e-06 beta[220] - 0.00149181025088423 beta[221]
   - 8.5137743974217914e-04 beta[222] + 0.00107868054968204 beta[223]
   + 0.0189275315593083 beta[224] + 9.2276081192091452e-04 beta[225]
   - 0.00943963124580084 beta[226] - 0.00153745440155678 beta[227]
   + 0.00676857500312545 beta[228] + 0.00186878075695465 beta[229]
   - 0.00518408 beta[230] - 0.00192352180736081 beta[231]
   + 0.010127891735765 beta[232] + 8.2837253653160372e-04 beta[233]
   - 0.00476974816449405 beta[234] - 0.0010532338314362 beta[235]
   + 0.00322870603662798 beta[236] + 0.00107844045365147 beta[237]
   - 0.00236399634692305 beta[238] - 0.000935452 beta[239]
   - 0.0115019612460225 beta[240] - 0.00122516268889615 beta[241]
   + 0.00539409176938863 beta[242] + 0.00169974692133692 beta[243]
   - 0.00345338453186701 beta[244] - 0.00179132202714164 beta[245]
   + 0.0022162792459147 beta[246] + 0.00146917871536694 beta[247]
   - 0.00568659476608534 beta[248] - 3.18378e-05 beta[249]
   + 0.00293832442777121 beta[250] + 2.64641e-05 beta[251]
   - 0.00249088582305578 beta[252] - 1.8323181806653962e-04 beta[253]
   + 0.00247692583780009 beta[254] + 6.8545557742470133e-04 beta[255]
   + 0.0045759170116526 beta[256] + 0.000221563 beta[257]
   - 0.00214157831345368 beta[258] - 0.000136273 beta[259]
   + 0.00159553331592105 beta[260] + 3.01604e-05 beta[261]
   - 0.00152462160337906 beta[262] - 1.389365183211083e-04 beta[263]
   + 0.0037632994423082 beta[264] + 3.67714e-05 beta[265]
   - 0.0021725938976017 beta[266] - 3.5126531252842368e-04 beta[267]
   + 0.00185014448914675 beta[268] + 0.000797897 beta[269]
   - 0.0015129484917051 beta[270] - 0.00118161321420643 beta[271]
   - 0.00232610776595187 beta[272] + 7.7369486985534889e-04 beta[273]
   + 0.0015938938019443 beta[274] - 8.7326769934546061e-04 beta[275]
   - 0.00172055463301569 beta[276] + 6.6703024669068284e-04 beta[277]
   + 0.00184389674777518 beta[278] - 2.9426956973376483e-04 beta[279]
   - 0.00914458908854423 beta[280] - 0.00123137056701989 beta[281]
   + 0.00420306333837109 beta[282] + 0.00169152814942739 beta[283]
   - 0.00259519272022176 beta[284] - 0.00184633860050042 beta[285]
   + 0.00152448327368525 beta[286] + 0.00171420334043752 beta[287]
   - 0.2921209532227276 beta[288] + 5.3847042806377549e-04 beta[289]
   - 0.015956572064799 beta[290] - 4.9866e-09 beta[291]
   + weighted_residual[0] = -0.290127464393108
 R591: - 0.2216728194322263 beta[0] - 0.00590536273764357 beta[1]
   - 0.00240183545174705 beta[2] - 0.00152454084577911 beta[3]
   - 0.000779249 beta[4] - 3.5176833984654692e-04 beta[5]
   - 1.4503060118130831e-04 beta[6] - 5.3922e-05 beta[7]
   + 0.0914860448807573 beta[8] - 0.00434352395698363 beta[9]
   + 6.0975773279086927e-04 beta[10] + 6.901556990446733e-04 beta[11]
   + 0.000322764 beta[12] + 1.1257417884852965e-04 beta[13]
   + 2.23499e-05 beta[14] - 1.0371e-05 beta[15]
   + 0.0945544056945729 beta[16] + 0.0152444217543809 beta[17]
   + 0.00148437913298996 beta[18] + 3.373184565711796e-04 beta[19]
   + 2.4382047439615946e-04 beta[20] + 0.000189081 beta[21]
   + 1.3657019090531258e-04 beta[22] + 9.65638e-05 beta[23]
   - 0.2129271307323808 beta[24] - 0.0177542034773495 beta[25]
   - 0.0024766354088441 beta[26] - 9.4871061538620376e-04 beta[27]
   - 5.7652846464033172e-04 beta[28] - 3.6410956431319675e-04 beta[29]
   - 2.3024278885510751e-04 beta[30] - 1.4925828229831102e-04 beta[31]
   + 0.2525750061872278 beta[32] + 0.0146340440544729 beta[33]
   + 0.00220189972958719 beta[34] + 9.732718825125505e-04 beta[35]
   + 5.7613656798436623e-04 beta[36] + 3.4899574851249819e-04 beta[37]
   + 2.1602487429815871e-04 beta[38] + 1.393204341280006e-04 beta[39]
   - 0.3295059966535536 beta[40] - 0.0171576844605884 beta[41]
   - 0.00175738937167417 beta[42] - 0.00064642 beta[43]
   - 3.615186195531834e-04 beta[44] - 2.0900133029959318e-04 beta[45]
   - 1.2648845871670903e-04 beta[46] - 8.17914e-05 beta[47]
   + 0.4054611570809287 beta[48] + 0.0254970972926737 beta[49]
   + 0.00215657110697425 beta[50] + 0.000398088 beta[51]
   + 1.4295575065123979e-04 beta[52] + 6.16992e-05 beta[53]
   + 3.04756e-05 beta[54] + 1.81375e-05 beta[55]
   - 0.2863490512025934 beta[56] - 0.0252049063771887 beta[57]
   - 0.00284349424935628 beta[58] - 0.000461909 beta[59]
   - 7.82953e-05 beta[60] + 3.03996e-06 beta[61] + 1.77194e-05 beta[62]
   + 1.66357e-05 beta[63] + 0.0333989079168849 beta[64]
   + 0.0130266140756601 beta[65] + 0.0028033997879107 beta[66]
   + 0.00069846 beta[67] + 1.7109164958224653e-04 beta[68]
   + 3.03193e-05 beta[69] - 5.57238e-06 beta[70] - 1.29301e-05 beta[71]
   + 0.0639627979891747 beta[72] - 0.00381035284083926 beta[73]
   - 0.00237728030392703 beta[74] - 8.8438541380144299e-04 beta[75]
   - 3.0731044149002828e-04 beta[76] - 1.0925088234800407e-04 beta[77]
   - 4.04491e-05 beta[78] - 1.47735e-05 beta[79]
   + 0.0260820614968662 beta[80] + 0.00371600452412509 beta[81]
   + 0.00216276485499579 beta[82] + 0.000915028 beta[83]
   + 3.7105233348883076e-04 beta[84] + 1.6251368199844649e-04 beta[85]
   + 7.87927e-05 beta[86] + 4.14572e-05 beta[87]
   - 0.0973318205171518 beta[88] - 0.00440484770823468 beta[89]
   - 0.00174112458503047 beta[90] - 7.3952840774375579e-04 beta[91]
   - 3.1878688061714723e-04 beta[92] - 1.5485674891892951e-04 beta[93]
   - 8.47556e-05 beta[94] - 5.04467e-05 beta[95]
   - 0.00721272616536586 beta[96] - 0.00135223670752727 beta[97]
   - 5.1880978903725194e-04 beta[98] - 2.955405078792802e-04 beta[99]
   - 0.000195813 beta[100] - 1.393672258722678e-04 beta[101]
   - 1.0337913618040289e-04 beta[102] - 7.89733e-05 beta[103]
   + 0.00452282756894152 beta[104] + 0.00053311 beta[105]
   + 2.6735111245087395e-04 beta[106] + 0.000186103 beta[107]
   + 0.000134383 beta[108] + 9.99622e-05 beta[109] + 7.64749e-05 beta[110]
   + 5.99624e-05 beta[111] - 4.8467366590376797e-04 beta[112]
   + 2.8648855034959174e-04 beta[113] + 5.29448e-05 beta[114]
   - 5.7711e-06 beta[115] - 1.64249e-05 beta[116] - 1.65587e-05 beta[117]
   - 1.47908e-05 beta[118] - 1.29361e-05 beta[119]
   - 0.00135072094924103 beta[120] - 3.8455575612524935e-04 beta[121]
   - 2.2326170147025798e-04 beta[122] - 1.4363433075322623e-04 beta[123]
   - 9.7354e-05 beta[124] - 6.97714e-05 beta[125] - 5.21879e-05 beta[126]
   - 4.0263e-05 beta[127] + 1.22239e-05 beta[128] - 9.66399e-05 beta[129]
   + 0.000139734 beta[130] + 1.4610735124908036e-04 beta[131]
   + 0.000116334 beta[132] + 8.9835e-05 beta[133] + 7.02934e-05 beta[134]
   + 5.61293e-05 beta[135] - 5.7213689136984599e-04 beta[136]
   + 2.1106554697173884e-04 beta[137] + 3.70479e-05 beta[138]
   - 2.18092e-05 beta[139] - 3.46156e-05 beta[140] - 3.38167e-05 beta[141]
   - 2.98787e-05 beta[142] - 2.57683e-05 beta[143]
   + 0.00428949222274366 beta[144] + 3.8367260130610554e-04 beta[145]
   - 5.1713e-05 beta[146] - 7.07816e-05 beta[147] - 4.91151e-05 beta[148]
   - 3.21207e-05 beta[149] - 2.14631e-05 beta[150] - 1.48145e-05 beta[151]
   - 0.00346744921806592 beta[152] - 6.1327810530876906e-04 beta[153]
   - 4.05928e-05 beta[154] + 5.56781e-05 beta[155] + 6.08423e-05 beta[156]
   + 5.0679e-05 beta[157] + 4.02083e-05 beta[158] + 3.18534e-05 beta[159]
   - 0.00287569398414705 beta[160] - 2.95419e-05 beta[161]
   + 3.59536e-05 beta[162] - 3.69056e-06 beta[163] - 2.12226e-05 beta[164]
   - 2.53175e-05 beta[165] - 2.43263e-05 beta[166] - 2.18048e-05 beta[167]
   + 0.00476420058947617 beta[168] + 4.3331768673887802e-04 beta[169]
   + 2.41307e-06 beta[170] - 3.26832e-05 beta[171] - 2.2512e-05 beta[172]
   - 1.17058e-05 beta[173] - 4.71372e-06 beta[174] - 6.3284e-07 beta[175]
   - 3.8301018289505742e-04 beta[176] - 1.1512814578729485e-04 beta[177]
   + 3.42883e-05 beta[178] + 5.21508e-05 beta[179] + 4.30055e-05 beta[180]
   + 3.16976e-05 beta[181] + 2.2716e-05 beta[182] + 1.61913e-05 beta[183]
   - 0.00293984574185394 beta[184] - 2.5417061912005916e-04 beta[185]
   - 6.89471e-05 beta[186] - 3.884e-05 beta[187] - 2.76208e-05 beta[188]
   - 2.09963e-05 beta[189] - 1.63189e-05 beta[190] - 1.27881e-05 beta[191]
   - 0.0301724466519035 beta[192] - 0.00211092095844746 beta[193]
   + 0.0154433048999585 beta[194] + 0.00441694444882642 beta[195]
   - 0.0101841653300322 beta[196] - 0.00529819344809207 beta[197]
   + 0.00646869512365022 beta[198] + 0.00483286625691388 beta[199]
   - 0.00797554522648072 beta[200] + 9.6145585721199285e-04 beta[201]
   + 0.00439180638687931 beta[202] - 0.00156797037749993 beta[203]
   - 0.00464497101349348 beta[204] + 9.2590540712809944e-04 beta[205]
   + 0.00481721077947995 beta[206] + 1.3657213545741894e-04 beta[207]
   + 0.00273074113751919 beta[208] - 6.2034632164599914e-04 beta[209]
   - 0.00229884348846727 beta[210] + 7.79929e-06 beta[211]
   + 0.00249417465857083 beta[212] + 0.00130140944077859 beta[213]
   - 0.00162530842634677 beta[214] - 0.00188001301854332 beta[215]
   + 0.00608009197887908 beta[216] + 9.93658e-05 beta[217]
   - 0.00248128871462336 beta[218] + 8.3145961384800118e-04 beta[219]
   + 0.00225052116560967 beta[220] - 0.00143035870955099 beta[221]
   - 0.0032117946590253 beta[222] + 7.0574317597891893e-04 beta[223]
   + 0.00666310896640405 beta[224] + 8.5547942202649245e-04 beta[225]
   - 0.00317885779274197 beta[226] - 0.00163009416688023 beta[227]
   + 0.00124190382345757 beta[228] + 0.00127175691577516 beta[229]
   + 3.21006e-05 beta[230] + 6.26576e-06 beta[231] - 7.98318e-05 beta[232]
   - 3.4803333684053743e-04 beta[233] - 2.7850634235975619e-04 beta[234]
   + 3.6940469634642203e-04 beta[235] + 9.2342111450303434e-04 beta[236]
   + 5.4069653986636062e-04 beta[237] - 6.0860820103549973e-04 beta[238]
   - 0.00127744733253854 beta[239] - 0.00611911409202556 beta[240]
   - 6.706657048469823e-04 beta[241] + 0.00309008118911333 beta[242]
   + 0.00122246513154937 beta[243] - 0.00214766658442446 beta[244]
   - 0.00194548514178252 beta[245] + 7.245581523163036e-04 beta[246]
   + 0.00169435196296954 beta[247] - 0.00192918575363964 beta[248]
   + 3.0318440255047713e-04 beta[249] + 0.00105215552382353 beta[250]
   - 5.6750420802657755e-04 beta[251] - 0.00121265863194065 beta[252]
   + 0.000587245 beta[253] + 0.00181233946296809 beta[254]
   + 2.9317949840658848e-04 beta[255] + 0.00273969344014958 beta[256]
   + 4.3173071744386773e-04 beta[257] - 0.00131265452424109 beta[258]
   - 5.5834780916870399e-04 beta[259] + 0.00110510086478055 beta[260]
   + 9.0249423523407733e-04 beta[261] - 9.6872649407363047e-04 beta[262]
   - 0.00159799718845726 beta[263] + 1.8593953991623036e-04 beta[264]
   - 0.0003325 beta[265] - 2.633823509439654e-04 beta[266]
   + 3.6292133125342529e-04 beta[267] + 2.9558259048412944e-04 beta[268]
   - 5.0380757221657653e-04 beta[269] - 5.2208026577574556e-04 beta[270]
   + 5.9400344124591466e-04 beta[271] - 3.6609967403172734e-04 beta[272]
   + 4.2149e-05 beta[273] + 3.5178247815149764e-04 beta[274]
   + 9.82008e-05 beta[275] - 3.6628357363756596e-04 beta[276]
   - 1.8541339838428329e-04 beta[277] + 5.0587576497378812e-04 beta[278]
   + 0.000437849 beta[279] + 6.3383733635991881e-04 beta[280]
   - 8.87468e-05 beta[281] - 4.3479063518301128e-04 beta[282]
   + 8.7592e-06 beta[283] + 0.000381708 beta[284] + 4.28438e-05 beta[285]
   - 0.000423269 beta[286] - 2.3782954197270641e-04 beta[287]
   - 0.29858205666189 beta[288] + 8.65867e-05 beta[289]
   + 0.0680054197263078 beta[290] + 7.38144e-11 beta[291]
   + weighted_residual[1] = -0.2625450743804912
 R592: - 0.2533759945949692 beta[0] - 0.00632902631253721 beta[1]
   + 0.00447705260104643 beta[2] + 0.00194481289935967 beta[3]
   + 5.2575913647737388e-04 beta[4] + 6.35463e-05 beta[5]
   - 4.54926e-05 beta[6] - 5.42457e-05 beta[7] + 0.1183251012626602 beta[8]
   - 0.00764061491061003 beta[9] - 0.00441856654993485 beta[10]
   - 0.00135577 beta[11] - 3.3279464129957228e-04 beta[12]
   - 5.09863e-05 beta[13] + 1.22526e-05 beta[14] + 1.9447e-05 beta[15]
   + 0.0832737954374639 beta[16] + 0.0295069634929218 beta[17]
   + 0.00556583412823369 beta[18] + 0.00104717344337146 beta[19]
   + 2.4063553279745701e-04 beta[20] + 8.94489e-05 beta[21]
   + 5.17562e-05 beta[22] + 3.54692e-05 beta[23]
   - 0.2419821831572178 beta[24] - 0.0404494778776204 beta[25]
   - 0.00604861835457463 beta[26] - 0.00104067802091289 beta[27]
   - 2.9992524185663757e-04 beta[28] - 1.6515647280868125e-04 beta[29]
   - 1.1460938481209362e-04 beta[30] - 8.17634e-05 beta[31]
   + 0.3002054828200972 beta[32] + 0.0272297058483131 beta[33]
   + 0.00274140447573397 beta[34] + 0.000417775 beta[35]
   + 2.0179047361239299e-04 beta[36] + 1.5607585586645219e-04 beta[37]
   + 1.1841212995693102e-04 beta[38] + 8.71267e-05 beta[39]
   - 0.187705222971162 beta[40] + 0.00475699503528152 beta[41]
   + 0.00381345896641099 beta[42] + 0.00111861489645525 beta[43]
   + 2.510474962431482e-04 beta[44] + 2.31248e-05 beta[45]
   - 2.85787e-05 beta[46] - 3.59031e-05 beta[47]
   - 0.0927920927465607 beta[48] - 0.0379868609464831 beta[49]
   - 0.00991573609853481 beta[50] - 0.00276479239172515 beta[51]
   - 8.6067518625892938e-04 beta[52] - 3.0836373016062524e-04 beta[53]
   - 1.2628337496781457e-04 beta[54] - 5.64977e-05 beta[55]
   + 0.1804662032387802 beta[56] + 0.0433669702722367 beta[57]
   + 0.0114132381833783 beta[58] + 0.00343779675001383 beta[59]
   + 0.00123774094348498 beta[60] + 5.3531023871359348e-04 beta[61]
   + 2.6805650124708434e-04 beta[62] + 1.4875639737999135e-04 beta[63]
   + 0.2183427037084772 beta[64] - 0.00284212296316788 beta[65]
   - 0.00593654337933211 beta[66] - 0.00249560649270612 beta[67]
   - 0.00110138142471258 beta[68] - 5.6014920145823542e-04 beta[69]
   - 3.182601132302584e-04 beta[70] - 1.9531085561675865e-04 beta[71]
   - 0.6855884930865283 beta[72] - 0.0538046378423346 beta[73]
   - 0.00395829374399401 beta[74] + 0.000191131 beta[75]
   + 4.4109039537120799e-04 beta[76] + 3.4273852158943542e-04 beta[77]
   + 2.4207442253759175e-04 beta[78] + 1.7018934968447325e-04 beta[79]
   + 0.6737961564974837 beta[80] + 0.0771019246002029 beta[81]
   + 0.0116776784184069 beta[82] + 0.00226990095935275 beta[83]
   + 4.5010048637975119e-04 beta[84] + 3.01852e-05 beta[85]
   - 6.66069e-05 beta[86] - 8.04332e-05 beta[87]
   - 0.3014681829456874 beta[88] - 0.0557401915903596 beta[89]
   - 0.0126342108049644 beta[90] - 0.00353367789199582 beta[91]
   - 0.00112691550239818 beta[92] - 3.8604456975902841e-04 beta[93]
   - 1.3163711908235795e-04 beta[94] - 3.68117e-05 beta[95]
   + 0.00960975432776205 beta[96] - 6.8005877945928541e-04 beta[97]
   - 5.1252025090735938e-04 beta[98] - 2.6948812608664288e-04 beta[99]
   - 1.6523146102989718e-04 beta[100] - 1.1736465833073396e-04 beta[101]
   - 9.07068e-05 beta[102] - 7.30942e-05 beta[103]
   + 0.00157823777618981 beta[104] + 9.5568944162157732e-04 beta[105]
   + 3.7510519368778741e-04 beta[106] + 1.8161129696058536e-04 beta[107]
   + 0.0001083 beta[108] + 7.49822e-05 beta[109] + 5.68029e-05 beta[110]
   + 4.52905e-05 beta[111] - 0.00726240283736347 beta[112]
   - 2.3896056431519367e-04 beta[113] + 7.82761e-05 beta[114]
   + 4.54018e-05 beta[115] + 2.10343e-05 beta[116] + 1.00545e-05 beta[117]
   + 4.95771e-06 beta[118] + 2.2731e-06 beta[119]
   + 0.00130529321262211 beta[120] - 0.00124148479525776 beta[121]
   - 6.1093875208329668e-04 beta[122] - 2.9997975987141554e-04 beta[123]
   - 1.6539038648126405e-04 beta[124] - 1.0231860904113453e-04 beta[125]
   - 6.9316e-05 beta[126] - 5.01069e-05 beta[127]
   + 0.0082628410042609 beta[128] + 0.00202409623876551 beta[129]
   + 7.3805847586307604e-04 beta[130] + 0.000362815 beta[131]
   + 2.121406367973529e-04 beta[132] + 0.000138494 beta[133]
   + 9.75307e-05 beta[134] + 7.25319e-05 beta[135]
   - 0.00919832756679649 beta[136] - 9.9319877851415249e-04 beta[137]
   - 2.694231839297811e-04 beta[138] - 1.5231361294809574e-04 beta[139]
   - 1.0992243615291322e-04 beta[140] - 8.45304e-05 beta[141]
   - 6.68073e-05 beta[142] - 5.39217e-05 beta[143]
   - 0.00495532060642384 beta[144] - 0.00181945972425154 beta[145]
   - 0.000591324 beta[146] - 2.1830168084740689e-04 beta[147]
   - 8.60146e-05 beta[148] - 3.26685e-05 beta[149] - 9.23915e-06 beta[150]
   + 1.58056e-06 beta[151] + 0.0178240773049838 beta[152]
   + 0.00385534624827672 beta[153] + 0.00122607299385923 beta[154]
   + 5.142596080120296e-04 beta[155] + 2.5791715474849356e-04 beta[156]
   + 0.000145395 beta[157] + 8.86576e-05 beta[158] + 5.70776e-05 beta[159]
   - 0.00768303875064619 beta[160] - 0.00218903580860928 beta[161]
   - 9.5696858631857051e-04 beta[162] - 0.000496337 beta[163]
   - 0.0002898 beta[164] - 0.000184934 beta[165]
   - 1.259892293049923e-04 beta[166] - 9.00699e-05 beta[167]
   - 0.0123510420525897 beta[168] - 0.00160758496126569 beta[169]
   - 7.42123e-05 beta[170] + 1.4083066477270104e-04 beta[171]
   + 1.47021521583557e-04 beta[172] + 1.2242319423606755e-04 beta[173]
   + 9.81524e-05 beta[174] + 7.87622e-05 beta[175]
   + 0.015077399869069 beta[176] + 0.00347037327302056 beta[177]
   + 9.6227125884745996e-04 beta[178] + 2.9028180794592011e-04 beta[179]
   + 7.93291e-05 beta[180] + 6.17585e-06 beta[181] - 2.01819e-05 beta[182]
   - 2.90974e-05 beta[183] - 0.00383997763635515 beta[184]
   - 0.00253018784878969 beta[185] - 0.00110774320138982 beta[186]
   - 5.0040032764437075e-04 beta[187] - 2.4105067832917693e-04 beta[188]
   - 1.2172580597841761e-04 beta[189] - 6.25103e-05 beta[190]
   - 3.12137e-05 beta[191] - 0.00288972697340022 beta[192]
   - 0.00172162038481364 beta[193] + 9.3162642862657094e-04 beta[194]
   + 0.00233817294207666 beta[195] - 3.48928e-05 beta[196]
   - 0.0026874979377812 beta[197] - 7.3675166534946195e-04 beta[198]
   + 0.00292625305352244 beta[199] - 0.00504450833922073 beta[200]
   + 1.8693635207790661e-04 beta[201] + 0.00275255832722909 beta[202]
   - 7.10979e-05 beta[203] - 0.00221677737271794 beta[204]
   - 4.61611e-05 beta[205] + 0.00192051666338986 beta[206]
   + 4.53316e-05 beta[207] - 0.00585244325426347 beta[208]
   + 2.2030640434997478e-04 beta[209] + 0.00288731179648903 beta[210]
   - 5.0658452294564515e-04 beta[211] - 0.00235670688480447 beta[212]
   + 6.8347612210448844e-04 beta[213] + 0.00236111650978184 beta[214]
   - 0.00060665 beta[215] + 0.00139167113264916 beta[216]
   - 8.82944e-05 beta[217] - 6.7215070182581572e-04 beta[218]
   + 2.8309226815139473e-04 beta[219] + 0.000693604 beta[220]
   - 3.8490520981841395e-04 beta[221] - 9.5782876806707097e-04 beta[222]
   + 2.593113741027532e-04 beta[223] + 0.00905118780748821 beta[224]
   + 2.9885079501775847e-04 beta[225] - 0.00458412585336172 beta[226]
   - 5.6401060147577542e-04 beta[227] + 0.00338299796887804 beta[228]
   + 7.5286936893175524e-04 beta[229] - 0.00267475577692063 beta[230]
   - 8.3492281166863756e-04 beta[231] + 0.00209989558352923 beta[232]
   + 2.0470761102531982e-04 beta[233] - 9.2809772273213761e-04 beta[234]
   - 2.4049744140711295e-04 beta[235] + 5.4092867503989495e-04 beta[236]
   + 2.3603778470545304e-04 beta[237] - 2.3632961761168743e-04 beta[238]
   - 1.3369346573883606e-04 beta[239] - 0.00739750473674541 beta[240]
   - 0.000718705 beta[241] + 0.00357875773418772 beta[242]
   + 0.00108291933921468 beta[243] - 0.00243404123440225 beta[244]
   - 0.00133070740120667 beta[245] + 0.00160327 beta[246]
   + 0.00134941897703058 beta[247] + 0.000475592 beta[248]
   + 0.000127883 beta[249] - 2.7895847177552218e-04 beta[250]
   - 2.8772222654576551e-04 beta[251] + 1.6841184617489197e-04 beta[252]
   + 4.6343563781691582e-04 beta[253] + 8.02107e-05 beta[254]
   - 4.9144843278652885e-04 beta[255] + 0.00489594949531055 beta[256]
   + 0.000521444 beta[257] - 0.00223322425177996 beta[258]
   - 6.2298722933166702e-04 beta[259] + 0.00143770272042751 beta[260]
   + 5.5560048905244942e-04 beta[261] - 0.00107020323017828 beta[262]
   - 4.6636578502346051e-04 beta[263] - 0.00274163376292513 beta[264]
   - 4.7815588843175272e-04 beta[265] + 0.00112620038254704 beta[266]
   + 5.7240174414354707e-04 beta[267] - 5.2448110665838182e-04 beta[268]
   - 4.9941535257243144e-04 beta[269] + 1.3052119923609695e-04 beta[270]
   + 3.0673678615636928e-04 beta[271] - 0.00269682271290104 beta[272]
   + 3.7204312457419521e-04 beta[273] + 0.00149920797168404 beta[274]
   - 0.000500703 beta[275] - 0.0013493856973208 beta[276]
   + 5.5815018317549895e-04 beta[277] + 0.00144426187770775 beta[278]
   - 4.9027234129663303e-04 beta[279] - 0.00130773848522607 beta[280]
   - 1.4412324803839152e-04 beta[281] + 6.9512732829918539e-04 beta[282]
   + 2.7217326846785755e-04 beta[283] - 5.6558585349468342e-04 beta[284]
   - 4.8828762505443519e-04 beta[285] + 3.676284314011939e-04 beta[286]
   + 6.740652595756733e-04 beta[287] - 0.31797074561487 beta[288]
   + 0.000358772 beta[289] + 0.073940998287532 beta[290]
   - 4.69783e-09 beta[291] + weighted_residual[2] = -0.267568911653786
 R593: - 0.00136255339832303 beta[0] + 1.2417638638684281e-04 beta[1]
   + 8.10336e-05 beta[2] + 3.05521e-05 beta[3] + 1.13643e-05 beta[4]
   + 4.70856e-06 beta[5] + 2.27972e-06 beta[6] + 1.27607e-06 beta[7]
   - 5.3074831875221662e-04 beta[8] - 2.0035128662332369e-04 beta[9]
   - 6.65027e-05 beta[10] - 2.21082e-05 beta[11] - 8.16099e-06 beta[12]
   - 3.5269e-06 beta[13] - 1.79581e-06 beta[14] - 1.04076e-06 beta[15]
   + 0.0025809162530166 beta[16] + 0.000309171 beta[17]
   + 5.30935e-05 beta[18] + 1.22975e-05 beta[19] + 4.01636e-06 beta[20]
   + 1.80195e-06 beta[21] + 9.89128e-07 beta[22] + 6.02184e-07 beta[23]
   - 0.00300116294847719 beta[24] - 3.3621948047568573e-04 beta[25]
   - 4.04198e-05 beta[26] - 4.74486e-06 beta[27] - 4.73617e-07 beta[28]
   - 4.49981e-08 beta[29] - 1.67951e-08 beta[30] - 9.55589e-09 beta[31]
   + 0.00205108232760765 beta[32] + 2.2119361483913247e-04 beta[33]
   + 1.48325e-05 beta[34] - 3.11545e-06 beta[35] - 2.81049e-06 beta[36]
   - 1.68358e-06 beta[37] - 1.01635e-06 beta[38] - 6.49942e-07 beta[39]
   - 9.1527960997872526e-04 beta[40] - 2.00906e-05 beta[41]
   + 2.33258e-05 beta[42] + 1.25809e-05 beta[43] + 6.12057e-06 beta[44]
   + 3.25321e-06 beta[45] + 1.90626e-06 beta[46] + 1.2006e-06 beta[47]
   - 4.0570783882643013e-04 beta[48] - 0.000190069 beta[49]
   - 5.77546e-05 beta[50] - 1.98212e-05 beta[51] - 8.16776e-06 beta[52]
   - 4.02088e-06 beta[53] - 2.25993e-06 beta[54] - 1.38532e-06 beta[55]
   + 0.0013616895634927 beta[56] + 2.8931934603154685e-04 beta[57]
   + 6.64918e-05 beta[58] + 1.90445e-05 beta[59] + 6.96164e-06 beta[60]
   + 3.16138e-06 beta[61] + 1.67904e-06 beta[62] + 9.87548e-07 beta[63]
   - 6.15916e-05 beta[64] - 1.1793421743927501e-04 beta[65]
   - 3.01763e-05 beta[66] - 6.73264e-06 beta[67] - 1.59571e-06 beta[68]
   - 4.12702e-07 beta[69] - 1.00659e-07 beta[70] - 7.91275e-09 beta[71]
   - 0.00295686869767775 beta[72] - 2.7108931081640253e-04 beta[73]
   - 4.41856e-05 beta[74] - 1.43662e-05 beta[75] - 6.50493e-06 beta[76]
   - 3.42054e-06 beta[77] - 1.98406e-06 beta[78] - 1.23568e-06 beta[79]
   + 0.00444978554606568 beta[80] + 0.000559854 beta[81]
   + 1.1051371348921868e-04 beta[82] + 3.33763e-05 beta[83]
   + 1.34709e-05 beta[84] + 6.56055e-06 beta[85] + 3.62469e-06 beta[86]
   + 2.18351e-06 beta[87] - 0.00317159745520268 beta[88]
   - 5.0639377756567239e-04 beta[89] - 1.1680926810444386e-04 beta[90]
   - 3.6737e-05 beta[91] - 1.47119e-05 beta[92] - 7.05121e-06 beta[93]
   - 3.84001e-06 beta[94] - 2.28638e-06 beta[95] - 2.11861e-05 beta[96]
   - 2.18244e-06 beta[97] + 6.05838e-07 beta[98] + 6.75988e-07 beta[99]
   + 4.48909e-07 beta[100] + 2.70086e-07 beta[101] + 1.60082e-07 beta[102]
   + 9.68627e-08 beta[103] + 1.70521e-05 beta[104] + 3.82228e-06 beta[105]
   + 6.15075e-07 beta[106] - 1.10232e-08 beta[107] - 1.1027e-07 beta[108]
   - 1.04682e-07 beta[109] - 8.40936e-08 beta[110] - 6.64155e-08 beta[111]
   - 4.13943e-07 beta[112] - 1.87735e-06 beta[113] - 7.29001e-07 beta[114]
   - 2.52714e-07 beta[115] - 6.31603e-08 beta[116] + 1.53337e-08 beta[117]
   + 4.71964e-08 beta[118] + 5.83358e-08 beta[119] - 1.19337e-05 beta[120]
   - 3.21855e-06 beta[121] - 8.99099e-07 beta[122] - 3.39323e-07 beta[123]
   - 1.8486e-07 beta[124] - 1.33586e-07 beta[125] - 1.10573e-07 beta[126]
   - 9.58032e-08 beta[127] + 1.79342e-05 beta[128] + 7.55835e-06 beta[129]
   + 2.64231e-06 beta[130] + 1.09157e-06 beta[131] + 5.32304e-07 beta[132]
   + 2.96644e-07 beta[133] + 1.83426e-07 beta[134] + 1.22724e-07 beta[135]
   - 2.79004e-05 beta[136] - 7.99459e-06 beta[137] - 2.67038e-06 beta[138]
   - 1.0653e-06 beta[139] - 4.82011e-07 beta[140] - 2.33566e-07 beta[141]
   - 1.14849e-07 beta[142] - 5.36123e-08 beta[143] + 7.04801e-06 beta[144]
   - 2.80572e-07 beta[145] - 2.00962e-07 beta[146] - 1.77498e-07 beta[147]
   - 1.70602e-07 beta[148] - 1.59093e-07 beta[149] - 1.45565e-07 beta[150]
   - 1.31947e-07 beta[151] + 5.17515e-05 beta[152] + 1.43187e-05 beta[153]
   + 4.78104e-06 beta[154] + 2.07908e-06 beta[155] + 1.11218e-06 beta[156]
   + 6.86292e-07 beta[157] + 4.67001e-07 beta[158] + 3.40277e-07 beta[159]
   - 6.59167e-05 beta[160] - 1.82375e-05 beta[161] - 6.71034e-06 beta[162]
   - 3.01021e-06 beta[163] - 1.57377e-06 beta[164] - 9.24458e-07 beta[165]
   - 5.92105e-07 beta[166] - 4.04384e-07 beta[167] + 2.74128e-06 beta[168]
   + 4.64158e-06 beta[169] + 2.96277e-06 beta[170] + 1.61451e-06 beta[171]
   + 8.94234e-07 beta[172] + 5.21166e-07 beta[173] + 3.18754e-07 beta[174]
   + 2.02328e-07 beta[175] + 5.79931e-05 beta[176] + 1.37821e-05 beta[177]
   + 4.07022e-06 beta[178] + 1.54887e-06 beta[179] + 7.47421e-07 beta[180]
   + 4.376e-07 beta[181] + 2.9519e-07 beta[182] + 2.19287e-07 beta[183]
   - 6.7563e-05 beta[184] - 2.28089e-05 beta[185] - 9.08741e-06 beta[186]
   - 4.24045e-06 beta[187] - 2.27318e-06 beta[188] - 1.36371e-06 beta[189]
   - 8.92954e-07 beta[190] - 6.25184e-07 beta[191] - 3.80053e-05 beta[192]
   + 2.93833e-06 beta[193] + 2.51553e-05 beta[194] + 1.51926e-06 beta[195]
   - 2.37744e-05 beta[196] - 8.78261e-06 beta[197] + 2.03291e-05 beta[198]
   + 1.52335e-05 beta[199] + 1.61071e-06 beta[200] - 5.89471e-06 beta[201]
   - 5.57292e-06 beta[202] + 4.52052e-06 beta[203] + 8.07102e-06 beta[204]
   - 1.10203e-06 beta[205] - 7.94425e-06 beta[206] - 1.68912e-06 beta[207]
   + 4.69375e-05 beta[208] + 6.06803e-06 beta[209] - 2.1127e-05 beta[210]
   - 7.11332e-06 beta[211] + 1.4129e-05 beta[212] + 7.629e-06 beta[213]
   - 1.06039e-05 beta[214] - 8.7415e-06 beta[215] - 1.64814e-05 beta[216]
   + 1.10989e-07 beta[217] + 8.6599e-06 beta[218] - 1.26152e-07 beta[219]
   - 7.78264e-06 beta[220] - 1.25718e-06 beta[221] + 7.14761e-06 beta[222]
   + 3.67181e-06 beta[223] - 5.20313e-05 beta[224] - 6.03568e-06 beta[225]
   + 2.38436e-05 beta[226] + 7.94039e-06 beta[227] - 1.45879e-05 beta[228]
   - 7.42548e-06 beta[229] + 9.52137e-06 beta[230] + 5.46824e-06 beta[231]
   + 1.9662e-05 beta[232] + 3.84406e-06 beta[233] - 7.98556e-06 beta[234]
   - 4.67744e-06 beta[235] + 3.54391e-06 beta[236] + 4.11547e-06 beta[237]
   - 7.55333e-07 beta[238] - 2.57594e-06 beta[239] + 4.0708e-05 beta[240]
   + 1.43775e-06 beta[241] - 2.05812e-05 beta[242] - 2.55787e-06 beta[243]
   + 1.52029e-05 beta[244] + 3.04315e-06 beta[245] - 1.26374e-05 beta[246]
   - 3.37845e-06 beta[247] + 5.2711e-07 beta[248] - 1.49284e-06 beta[249]
   - 1.11957e-06 beta[250] + 2.07898e-06 beta[251] + 2.85406e-06 beta[252]
   - 9.21203e-07 beta[253] - 3.82201e-06 beta[254] - 1.21284e-06 beta[255]
   - 3.47366e-05 beta[256] + 2.34925e-07 beta[257] + 1.81981e-05 beta[258]
   - 2.80146e-07 beta[259] - 1.58286e-05 beta[260] - 1.44731e-06 beta[261]
   + 1.49229e-05 beta[262] + 4.4619e-06 beta[263] - 2.6437e-05 beta[264]
   - 2.59936e-06 beta[265] + 1.30008e-05 beta[266] + 4.45427e-06 beta[267]
   - 8.20241e-06 beta[268] - 4.91708e-06 beta[269] + 4.98522e-06 beta[270]
   + 4.06968e-06 beta[271] + 4.36672e-05 beta[272] + 1.90598e-06 beta[273]
   - 2.26652e-05 beta[274] - 4.07071e-06 beta[275] + 1.70031e-05 beta[276]
   + 5.96462e-06 beta[277] - 1.32733e-05 beta[278] - 7.11731e-06 beta[279]
   + 3.8224e-05 beta[280] + 4.55881e-06 beta[281] - 1.72027e-05 beta[282]
   - 5.46461e-06 beta[283] + 1.07914e-05 beta[284] + 5.03816e-06 beta[285]
   - 7.57559e-06 beta[286] - 4.27516e-06 beta[287]
   - 0.00175061600003801 beta[288] - 4e-08 beta[289]
   + 0.000641999 beta[290] + weighted_residual[3] = -0.00133795200133561
 R594: 0.00304410179879255 beta[0] + 8.88645e-05 beta[1]
   - 7.97424e-05 beta[2] - 1.8253e-05 beta[3] + 1.65322e-05 beta[4]
   + 2.69511e-05 beta[5] + 2.71109e-05 beta[6] + 2.40072e-05 beta[7]
   - 0.00303054959861271 beta[8] - 1.4953366628933651e-04 beta[9]
   - 2.62637e-05 beta[10] - 4.61046e-05 beta[11] - 5.0241e-05 beta[12]
   - 4.4334e-05 beta[13] - 3.62558e-05 beta[14] - 2.89406e-05 beta[15]
   + 0.00188476736681764 beta[16] + 0.000228378 beta[17]
   + 0.00016643 beta[18] + 1.2871037552292242e-04 beta[19]
   + 9.27553e-05 beta[20] + 6.5845e-05 beta[21] + 4.72933e-05 beta[22]
   + 3.46949e-05 beta[23] - 7.6398574069713732e-04 beta[24]
   - 4.2356658047415507e-04 beta[25] - 3.0728548861796989e-04 beta[26]
   - 1.9974030818412786e-04 beta[27] - 1.2694839236932279e-04 beta[28]
   - 8.23666e-05 beta[29] - 5.53641e-05 beta[30] - 3.86172e-05 beta[31]
   + 9.8425712549143896e-04 beta[32] + 0.000756613 beta[33]
   + 4.4763157299926304e-04 beta[34] + 0.000256149 beta[35]
   + 1.5015977918088688e-04 beta[36] + 9.21271e-05 beta[37]
   + 5.9387e-05 beta[38] + 4.00571e-05 beta[39]
   - 8.9336673225304253e-04 beta[40] - 9.6295329903739457e-04 beta[41]
   - 0.000539557 beta[42] - 2.8669239992992757e-04 beta[43]
   - 0.000158489 beta[44] - 9.31468e-05 beta[45] - 5.81388e-05 beta[46]
   - 3.82119e-05 beta[47] - 3.9745560139081704e-04 beta[48]
   + 9.2292582136832557e-04 beta[49] + 5.4926117043913036e-04 beta[50]
   + 2.8402237542931794e-04 beta[51] + 1.5165756986164e-04 beta[52]
   + 8.6508e-05 beta[53] + 5.26931e-05 beta[54] + 3.39199e-05 beta[55]
   + 0.00125298769006577 beta[56] - 8.606957763479528e-04 beta[57]
   - 0.000529076 beta[58] - 2.6907045279394443e-04 beta[59]
   - 1.4077213419208881e-04 beta[60] - 7.8765e-05 beta[61]
   - 4.71002e-05 beta[62] - 2.97612e-05 beta[63]
   - 0.00193229292455577 beta[64] + 8.2697450688784535e-04 beta[65]
   + 0.000519688 beta[66] + 2.5861218391078078e-04 beta[67]
   + 1.3223726404943716e-04 beta[68] + 7.2455e-05 beta[69]
   + 4.24393e-05 beta[70] + 2.62343e-05 beta[71]
   + 0.00384695915144562 beta[72] - 6.8085530533279481e-04 beta[73]
   - 4.9752077630978164e-04 beta[74] - 2.4403867299608098e-04 beta[75]
   - 1.2110540420768538e-04 beta[76] - 6.44507e-05 beta[77]
   - 3.67356e-05 beta[78] - 2.21055e-05 beta[79]
   - 0.005372401416599 beta[80] + 5.8393358574493348e-04 beta[81]
   + 4.7458726456527101e-04 beta[82] + 2.2643462972266569e-04 beta[83]
   + 1.0845683561619846e-04 beta[84] + 5.58964e-05 beta[85]
   + 3.09531e-05 beta[86] + 1.81104e-05 beta[87]
   + 0.00450519312662045 beta[88] - 7.8659922493340417e-04 beta[89]
   - 5.0132661315607785e-04 beta[90] - 2.2301953878985092e-04 beta[91]
   - 1.0249241353141401e-04 beta[92] - 5.1288e-05 beta[93]
   - 2.76968e-05 beta[94] - 1.57979e-05 beta[95]
   - 1.7408615448216702e-04 beta[96] - 5.99841e-05 beta[97]
   - 3.5607e-05 beta[98] - 2.31654e-05 beta[99] - 1.52114e-05 beta[100]
   - 9.97159e-06 beta[101] - 6.48707e-06 beta[102] - 4.14452e-06 beta[103]
   - 3.26564e-05 beta[104] - 5.18048e-06 beta[105] - 1.16707e-06 beta[106]
   - 6.80223e-07 beta[107] - 8.27821e-07 beta[108] - 1.0164e-06 beta[109]
   - 1.12916e-06 beta[110] - 1.16557e-06 beta[111] + 6.95359e-05 beta[112]
   + 1.68763e-05 beta[113] + 8.28759e-06 beta[114] + 5.02389e-06 beta[115]
   + 3.19773e-06 beta[116] + 2.06656e-06 beta[117] + 1.33907e-06 beta[118]
   + 8.59827e-07 beta[119] + 3.75908e-05 beta[120] + 1.64077e-05 beta[121]
   + 9.86686e-06 beta[122] + 6.62019e-06 beta[123] + 4.73583e-06 beta[124]
   + 3.5448e-06 beta[125] + 2.73748e-06 beta[126] + 2.1588e-06 beta[127]
   - 1.69904e-05 beta[128] - 5.11724e-06 beta[129] - 3.20511e-06 beta[130]
   - 1.96281e-06 beta[131] - 1.09622e-06 beta[132] - 5.40292e-07 beta[133]
   - 1.97244e-07 beta[134] + 1.0435e-08 beta[135] - 4.15312e-05 beta[136]
   - 2.02491e-05 beta[137] - 1.20782e-05 beta[138] - 7.72114e-06 beta[139]
   - 5.18159e-06 beta[140] - 3.62653e-06 beta[141] - 2.62742e-06 beta[142]
   - 1.95591e-06 beta[143] + 2.06934e-06 beta[144] + 4.73223e-06 beta[145]
   + 3.30375e-06 beta[146] + 1.65704e-06 beta[147] + 5.73131e-07 beta[148]
   - 3.26664e-08 beta[149] - 3.39309e-07 beta[150] - 4.75141e-07 beta[151]
   - 4.63647e-06 beta[152] + 3.62717e-06 beta[153] + 4.37103e-06 beta[154]
   + 3.43806e-06 beta[155] + 2.4864e-06 beta[156] + 1.77796e-06 beta[157]
   + 1.27915e-06 beta[158] + 9.27389e-07 beta[159] + 5.73919e-05 beta[160]
   + 1.49265e-05 beta[161] + 5.42168e-06 beta[162] + 3.19878e-06 beta[163]
   + 2.51576e-06 beta[164] + 2.14387e-06 beta[165] + 1.84107e-06 beta[166]
   + 1.56989e-06 beta[167] - 7.98714e-06 beta[168] - 4.82158e-06 beta[169]
   - 3.9107e-06 beta[170] - 3.12339e-06 beta[171] - 2.41956e-06 beta[172]
   - 1.83931e-06 beta[173] - 1.38267e-06 beta[174] - 1.03214e-06 beta[175]
   - 8.42721e-05 beta[176] - 2.8969e-05 beta[177] - 1.22519e-05 beta[178]
   - 6.41436e-06 beta[179] - 3.96741e-06 beta[180] - 2.73669e-06 beta[181]
   - 2.01497e-06 beta[182] - 1.54117e-06 beta[183] + 8.55569e-05 beta[184]
   + 3.11811e-05 beta[185] + 1.36356e-05 beta[186] + 6.971e-06 beta[187]
   + 4.01955e-06 beta[188] + 2.51988e-06 beta[189] + 1.6697e-06 beta[190]
   + 1.14826e-06 beta[191] + 0.00032339 beta[192] + 2.60475e-05 beta[193]
   - 1.7609914328753362e-04 beta[194] - 5.46803e-05 beta[195]
   + 0.00015158 beta[196] + 1.1583014987548435e-04 beta[197]
   - 9.58893e-05 beta[198] - 1.540943737537992e-04 beta[199]
   + 1.8321478483449005e-04 beta[200] + 5.17145e-05 beta[201]
   - 5.96713e-05 beta[202] - 5.77576e-05 beta[203] - 4.24922e-06 beta[204]
   + 1.64442e-05 beta[205] + 1.14904e-05 beta[206] + 1.55578e-05 beta[207]
   - 0.000293821 beta[208] - 7.89451e-05 beta[209]
   + 1.1225141981457964e-04 beta[210] + 1.0125125075075014e-04 beta[211]
   - 2.76498e-05 beta[212] - 7.573e-05 beta[213] - 3.21145e-06 beta[214]
   + 5.28419e-05 beta[215] - 1.07188e-05 beta[216] + 1.74748e-05 beta[217]
   + 1.41104e-05 beta[218] - 2.41773e-05 beta[219] - 3.16933e-05 beta[220]
   + 7.37421e-06 beta[221] + 2.7558e-05 beta[222] - 1.13295e-06 beta[223]
   + 1.4569487137558457e-04 beta[224] + 4.64164e-05 beta[225]
   - 5.00601e-05 beta[226] - 5.2381e-05 beta[227] + 1.69721e-05 beta[228]
   + 5.47766e-05 beta[229] + 1.39144e-05 beta[230] - 3.86308e-05 beta[231]
   - 1.2330451773348398e-04 beta[232] - 5.5398e-05 beta[233]
   + 2.71026e-05 beta[234] + 5.48689e-05 beta[235] + 1.08322e-05 beta[236]
   - 4.22443e-05 beta[237] - 3.52592e-05 beta[238] + 1.58196e-05 beta[239]
   + 7.94584e-05 beta[240] + 2.7386e-05 beta[241] - 1.40212e-05 beta[242]
   - 1.41199e-05 beta[243] - 2.94164e-06 beta[244] - 1.71031e-06 beta[245]
   + 5.36332e-06 beta[246] + 1.79729e-05 beta[247] + 6.24736e-05 beta[248]
   + 2.29684e-06 beta[249] - 4.22758e-05 beta[250] - 2.21496e-05 beta[251]
   + 2.3962e-05 beta[252] + 3.04973e-05 beta[253] - 5.18473e-06 beta[254]
   - 2.93072e-05 beta[255] - 9.94085e-05 beta[256] - 1.0073e-05 beta[257]
   + 5.18801e-05 beta[258] + 2.55789e-05 beta[259] - 2.29392e-05 beta[260]
   - 2.28593e-05 beta[261] + 4.32195e-06 beta[262] + 1.08545e-05 beta[263]
   - 5.18196e-05 beta[264] + 1.12088e-07 beta[265] + 2.55752e-05 beta[266]
   - 5.57237e-06 beta[267] - 3.13963e-05 beta[268] - 4.81496e-06 beta[269]
   + 3.04491e-05 beta[270] + 1.67189e-05 beta[271] + 5.8922e-05 beta[272]
   + 2.41029e-06 beta[273] - 2.88386e-05 beta[274] - 8.73696e-07 beta[275]
   + 2.76373e-05 beta[276] + 9.83612e-06 beta[277] - 1.88785e-05 beta[278]
   - 1.23352e-05 beta[279] + 7.33954e-05 beta[280] + 4.06154e-06 beta[281]
   - 3.67702e-05 beta[282] - 6.75416e-06 beta[283] + 2.53868e-05 beta[284]
   + 3.39697e-06 beta[285] - 2.81964e-05 beta[286] - 1.0794e-05 beta[287]
   + 0.00515173600003749 beta[288] - 4.94e-06 beta[289]
   - 0.00171294 beta[290] + weighted_residual[4] = 0.00382116400033976
 R595: - 0.00106514672033597 beta[0] - 2.749728626483261e-04 beta[1]
   - 5.1632853093619424e-04 beta[2] - 3.7027286835661366e-04 beta[3]
   - 1.9381023333223113e-04 beta[4] - 7.82574e-05 beta[5]
   - 1.65104e-05 beta[6] + 1.18258e-05 beta[7]
   + 0.00404764299631211 beta[8] + 0.00108568465074566 beta[9]
   + 4.2331282029572925e-04 beta[10] + 0.000149075 beta[11]
   + 2.65639e-05 beta[12] - 2.25227e-05 beta[13] - 3.73212e-05 beta[14]
   - 3.74202e-05 beta[15] - 0.00562634527884853 beta[16]
   - 8.4197349102366204e-04 beta[17] + 1.4546181249242007e-04 beta[18]
   + 2.8130040921010846e-04 beta[19] + 2.3286258413144148e-04 beta[20]
   + 1.6310927283737058e-04 beta[21] + 0.00010728 beta[22]
   + 6.8544e-05 beta[23] - 1.8018670514763357e-04 beta[24]
   - 0.00183977488318332 beta[25] - 0.00132559969428479 beta[26]
   - 0.0008063 beta[27] - 4.6476048232756649e-04 beta[28]
   - 2.6170054060281671e-04 beta[29] - 1.4536860337904282e-04 beta[30]
   - 7.98152e-05 beta[31] + 0.0119472269999399 beta[32]
   + 0.00571628564913107 beta[33] + 0.00257635309778856 beta[34]
   + 0.00119170540663831 beta[35] + 5.6367488574391974e-04 beta[36]
   + 2.69877210824454e-04 beta[37] + 1.2941840369832083e-04 beta[38]
   + 6.13707e-05 beta[39] - 0.0227989326450029 beta[40]
   - 0.0083331534604697 beta[41] - 0.00314930944608716 beta[42]
   - 0.00123621431124538 beta[43] - 4.9422548615538661e-04 beta[44]
   - 0.000196493 beta[45] - 7.51275e-05 beta[46] - 2.58359e-05 beta[47]
   + 0.0286911619559227 beta[48] + 0.00860879553346905 beta[49]
   + 0.00280283680779994 beta[50] + 9.3639063734595254e-04 beta[51]
   + 0.000304503 beta[52] + 8.75853e-05 beta[53] + 1.54009e-05 beta[54]
   - 5.96228e-06 beta[55] - 0.0260850975822002 beta[56]
   - 0.00673055146926393 beta[57] - 0.00184090712117294 beta[58]
   - 0.00047928 beta[59] - 9.51171e-05 beta[60] + 5.35732e-06 beta[61]
   + 2.41766e-05 beta[62] + 2.16581e-05 beta[63]
   + 0.014956005334561 beta[64] + 0.00371697252776082 beta[65]
   + 8.248875312864834e-04 beta[66] + 1.1660064451194524e-04 beta[67]
   - 3.20058e-05 beta[68] - 4.55497e-05 beta[69] - 3.31031e-05 beta[70]
   - 2.03527e-05 beta[71] - 0.0058655030945709 beta[72]
   - 0.00178307411598577 beta[73] - 3.7947044349645465e-04 beta[74]
   - 3.50713e-05 beta[75] + 2.67211e-05 beta[76] + 2.55501e-05 beta[77]
   + 1.57208e-05 beta[78] + 8.1966e-06 beta[79]
   + 0.00789503748297768 beta[80] + 0.00263854497074084 beta[81]
   + 7.9789117520030414e-04 beta[82] + 0.000243611 beta[83]
   + 7.78946e-05 beta[84] + 2.70341e-05 beta[85] + 1.07169e-05 beta[86]
   + 5.08121e-06 beta[87] - 0.0179285702539989 beta[88]
   - 0.00556946843013863 beta[89] - 0.00171571232838005 beta[90]
   - 5.5200279720373207e-04 beta[91] - 1.8766631006482013e-04 beta[92]
   - 6.76283e-05 beta[93] - 2.59843e-05 beta[94] - 1.07657e-05 beta[95]
   + 0.00042584 beta[96] + 3.370954350188915e-04 beta[97]
   + 9.40382e-05 beta[98] - 1.56108e-05 beta[99] - 5.13441e-05 beta[100]
   - 5.62417e-05 beta[101] - 5.00643e-05 beta[102] - 4.09438e-05 beta[103]
   - 2.6102133013447548e-04 beta[104] - 4.78188e-06 beta[105]
   + 4.9211e-05 beta[106] + 5.41873e-05 beta[107] + 4.67759e-05 beta[108]
   + 3.72736e-05 beta[109] + 2.86355e-05 beta[110] + 2.1547e-05 beta[111]
   - 4.7746425368214163e-04 beta[112] - 2.6023075611027874e-04 beta[113]
   - 1.1367649290758286e-04 beta[114] - 4.60551e-05 beta[115]
   - 1.63892e-05 beta[116] - 3.53913e-06 beta[117] + 1.82075e-06 beta[118]
   + 3.78215e-06 beta[119] + 4.0650576748693656e-04 beta[120]
   + 8.73913e-05 beta[121] + 9.16513e-06 beta[122] - 1.342e-05 beta[123]
   - 1.92122e-05 beta[124] - 1.92213e-05 beta[125] - 1.71985e-05 beta[126]
   - 1.45919e-05 beta[127] + 3.6381714189484722e-04 beta[128]
   + 1.5655129932076219e-04 beta[129] + 7.49625e-05 beta[130]
   + 4.08248e-05 beta[131] + 2.47884e-05 beta[132] + 1.62413e-05 beta[133]
   + 1.11707e-05 beta[134] + 7.91449e-06 beta[135]
   - 1.5386925748228988e-04 beta[136] - 6.11931e-05 beta[137]
   - 3.73717e-05 beta[138] - 2.3521e-05 beta[139] - 1.3983e-05 beta[140]
   - 7.5427e-06 beta[141] - 3.40076e-06 beta[142] - 8.76868e-07 beta[143]
   - 1.4804751675680239e-04 beta[144] - 1.18906e-06 beta[145]
   + 2.06481e-05 beta[146] + 1.78412e-05 beta[147] + 1.15386e-05 beta[148]
   + 6.2775e-06 beta[149] + 2.66032e-06 beta[150] + 4.07621e-07 beta[151]
   - 3.1869287347836839e-04 beta[152] - 0.000115105 beta[153]
   - 4.20391e-05 beta[154] - 1.4236e-05 beta[155] - 3.36777e-06 beta[156]
   + 7.44039e-07 beta[157] + 2.07762e-06 beta[158] + 2.27773e-06 beta[159]
   + 1.4144051705008986e-04 beta[160] + 4.79931e-06 beta[161]
   - 2.15859e-05 beta[162] - 2.36081e-05 beta[163] - 1.96637e-05 beta[164]
   - 1.48459e-05 beta[165] - 1.06306e-05 beta[166] - 7.33999e-06 beta[167]
   + 4.7001670220096076e-04 beta[168] + 0.000193982 beta[169]
   + 9.44325e-05 beta[170] + 5.02402e-05 beta[171] + 2.80852e-05 beta[172]
   + 1.61243e-05 beta[173] + 9.36822e-06 beta[174] + 5.44608e-06 beta[175]
   - 2.3023642341381961e-04 beta[176] - 1.0239152351623065e-04 beta[177]
   - 4.46317e-05 beta[178] - 1.73389e-05 beta[179] - 4.88238e-06 beta[180]
   + 4.0434e-07 beta[181] + 2.31775e-06 beta[182] + 2.71761e-06 beta[183]
   - 0.000147507 beta[184] - 6.68569e-05 beta[185] - 4.22281e-05 beta[186]
   - 2.89503e-05 beta[187] - 2.01753e-05 beta[188] - 1.40823e-05 beta[189]
   - 9.81829e-06 beta[190] - 6.83551e-06 beta[191] - 4.45264e-05 beta[192]
   + 1.5079742041568256e-04 beta[193] - 7.18328e-05 beta[194]
   - 4.8598144195943771e-04 beta[195] - 1.4966559995110984e-04 beta[196]
   + 7.5436182325194778e-04 beta[197] + 0.000791339 beta[198]
   - 4.1053743498803419e-04 beta[199] - 9.3509618371040437e-04 beta[200]
   - 1.1344144892067032e-04 beta[201] + 5.9314568935417422e-04 beta[202]
   + 4.1860852664957204e-04 beta[203] - 3.4094749203052166e-04 beta[204]
   - 7.1385372754889653e-04 beta[205] - 0.00023556 beta[206]
   + 0.000517398 beta[207] + 0.000387992 beta[208] - 0.000114835 beta[209]
   - 3.82008798160971e-04 beta[210] - 4.62909e-05 beta[211]
   + 3.7902489624597191e-04 beta[212] + 0.000308864 beta[213]
   - 1.0032186880629124e-04 beta[214] - 3.0370459083106649e-04 beta[215]
   + 0.00106710198415641 beta[216] + 3.7403932685864394e-04 beta[217]
   - 3.2076529235314233e-04 beta[218] - 0.000413522 beta[219]
   - 2.12783e-05 beta[220] + 2.60620434585912e-04 beta[221]
   + 1.2589531819897498e-04 beta[222] - 1.2994157868161799e-04 beta[223]
   - 0.0012109072880917 beta[224] - 3.2279517737991877e-04 beta[225]
   + 4.9253962578252319e-04 beta[226] + 4.6344410219960677e-04 beta[227]
   - 1.3284751751496682e-04 beta[228] - 0.00043813 beta[229]
   - 1.2979773046623011e-04 beta[230] + 2.7499025058587423e-04 beta[231]
   + 9.93524e-05 beta[232] - 3.59426e-05 beta[233]
   - 1.3541357383784619e-04 beta[234] - 7.54265e-05 beta[235]
   + 7.63035e-05 beta[236] + 0.00015681 beta[237] + 8.94766e-05 beta[238]
   - 5.69885e-05 beta[239] + 9.8210052898478617e-04 beta[240]
   + 3.5237426898769401e-04 beta[241] - 2.4721316804185434e-04 beta[242]
   - 2.9801449742431971e-04 beta[243] + 9.54993e-06 beta[244]
   + 1.4160030535763195e-04 beta[245] - 3.40005e-05 beta[246]
   - 1.5048258279330359e-04 beta[247] - 9.9085362945790234e-04 beta[248]
   - 3.601165019806213e-04 beta[249] + 2.4102939068026269e-04 beta[250]
   + 3.087041680915328e-04 beta[251] + 2.68921e-05 beta[252]
   - 1.205907727406608e-04 beta[253] - 1.02422e-05 beta[254]
   + 8.19127e-05 beta[255] + 5.96333e-05 beta[256]
   + 1.4111547604845395e-04 beta[257] + 1.1556345348717745e-04 beta[258]
   - 6.53219e-05 beta[259] - 1.9288164856332696e-04 beta[260]
   - 1.0042960078043145e-04 beta[261] + 8.64558e-05 beta[262]
   + 1.3665576726279091e-04 beta[263] + 3.9870450447745953e-04 beta[264]
   + 2.91976e-05 beta[265] - 2.2452685671719985e-04 beta[266]
   - 7.79953e-05 beta[267] + 1.86423285666662e-04 beta[268]
   + 0.000171466 beta[269] - 7.64324e-05 beta[270]
   - 1.9741633165953898e-04 beta[271] - 1.44974e-05 beta[272]
   - 4.13311e-05 beta[273] - 3.56213e-05 beta[274] + 4.32536e-06 beta[275]
   + 1.5144e-05 beta[276] - 9.31465e-06 beta[277] - 3.77466e-07 beta[278]
   + 5.12147e-05 beta[279] - 0.000195375 beta[280] + 2.66111e-05 beta[281]
   + 1.7851318390632587e-04 beta[282] + 8.08614e-05 beta[283]
   - 1.0705015918429511e-04 beta[284] - 0.000139994 beta[285]
   - 1.89495e-05 beta[286] + 6.55632e-05 beta[287] - 0.00255564 beta[288]
   + 4.2384e-05 beta[289] - 3.8132332238413613e-04 beta[290]
   + weighted_residual[5] = -0.00207569200072158
 R596: - 0.0310841591967489 beta[0] - 1.4759528427028517e-04 beta[1]
   + 3.4363281068973222e-04 beta[2] + 7.62508e-05 beta[3]
   - 2.40393e-05 beta[4] - 4.3591e-05 beta[5] - 3.94529e-05 beta[6]
   - 3.11184e-05 beta[7] + 0.0118419393409205 beta[8]
   - 8.9840184645106544e-04 beta[9] - 3.7908113760042506e-04 beta[10]
   - 8.84007e-05 beta[11] + 1.13834e-06 beta[12] + 2.14806e-05 beta[13]
   + 2.21548e-05 beta[14] + 1.84837e-05 beta[15]
   + 0.0157751556189874 beta[16] + 0.00382603479714 beta[17]
   + 9.5430352486558588e-04 beta[18] + 0.000288234 beta[19]
   + 1.0180369898111535e-04 beta[20] + 4.06393e-05 beta[21]
   + 1.75774e-05 beta[22] + 7.82447e-06 beta[23]
   - 0.0353987909916904 beta[24] - 0.00611079217489408 beta[25]
   - 0.00151580663872832 beta[26] - 4.9002528342116625e-04 beta[27]
   - 1.9837169950040698e-04 beta[28] - 9.51341e-05 beta[29]
   - 5.12524e-05 beta[30] - 2.98828e-05 beta[31]
   + 0.0312297633620389 beta[32] + 0.00355903341957335 beta[33]
   + 8.4690022593454086e-04 beta[34] + 2.8223844717569098e-04 beta[35]
   + 1.2248760815136865e-04 beta[36] + 6.3699e-05 beta[37]
   + 3.70036e-05 beta[38] + 2.30489e-05 beta[39]
   + 0.0042457056171149 beta[40] + 0.00315663387970603 beta[41]
   + 8.059576959326476e-04 beta[42] + 2.4230579432622015e-04 beta[43]
   + 8.42002e-05 beta[44] + 3.30986e-05 beta[45] + 1.45943e-05 beta[46]
   + 7.15594e-06 beta[47] - 0.0457994176939792 beta[48]
   - 0.00706476671348663 beta[49] - 0.00157384341263837 beta[50]
   - 4.769535487840827e-04 beta[51] - 1.830538693365199e-04 beta[52]
   - 8.49328e-05 beta[53] - 4.57304e-05 beta[54] - 2.74797e-05 beta[55]
   + 0.0414847030280994 beta[56] + 0.00269274197011434 beta[57]
   + 0.000460711 beta[58] + 1.5699072276471117e-04 beta[59]
   + 7.70477e-05 beta[60] + 4.56314e-05 beta[61] + 3.00277e-05 beta[62]
   + 2.10428e-05 beta[63] + 0.0146967694008638 beta[64]
   + 0.00529502642663242 beta[65] + 0.00105229529179619 beta[66]
   + 2.3489955435493994e-04 beta[67] + 5.53933e-05 beta[68]
   + 9.71911e-06 beta[69] - 2.79944e-06 beta[70] - 5.94842e-06 beta[71]
   - 0.0575726987294315 beta[72] - 0.00667622653347047 beta[73]
   - 0.000894061 beta[74] - 1.4587469984062202e-04 beta[75]
   - 2.47046e-05 beta[76] - 5.25596e-07 beta[77] + 4.61852e-06 beta[78]
   + 5.27768e-06 beta[79] + 0.0378489971781488 beta[80]
   - 4.1426331303853932e-04 beta[81] - 7.5774549386846228e-04 beta[82]
   - 3.0622757988404487e-04 beta[83] - 1.2539348302364098e-04 beta[84]
   - 5.86798e-05 beta[85] - 3.13787e-05 beta[86] - 1.86435e-05 beta[87]
   + 0.0126850088394328 beta[88] + 0.00691581389315511 beta[89]
   + 0.00182216218867717 beta[90] + 0.000563797 beta[91]
   + 2.1502046986729133e-04 beta[92] + 9.83588e-05 beta[93]
   + 5.161e-05 beta[94] + 2.99075e-05 beta[95] + 0.000257238 beta[96]
   + 1.5592114467994706e-04 beta[97] + 6.12524e-05 beta[98]
   + 1.60296e-05 beta[99] - 3.60465e-06 beta[100] - 1.14253e-05 beta[101]
   - 1.38963e-05 beta[102] - 1.40075e-05 beta[103]
   + 0.0011169207053201 beta[104] + 0.000417516 beta[105]
   + 2.1201622546550562e-04 beta[106] + 1.2649019318843234e-04 beta[107]
   + 8.42589e-05 beta[108] + 6.01747e-05 beta[109] + 4.50259e-05 beta[110]
   + 3.4855e-05 beta[111] - 5.5694878650522676e-04 beta[112]
   - 1.7384169439989004e-04 beta[113] - 9.2718e-05 beta[114]
   - 5.44165e-05 beta[115] - 3.44546e-05 beta[116] - 2.33373e-05 beta[117]
   - 1.67824e-05 beta[118] - 1.27021e-05 beta[119]
   - 0.00114081614596135 beta[120] - 5.9094516899877174e-04 beta[121]
   - 3.048194791331803e-04 beta[122] - 1.7556365696329835e-04 beta[123]
   - 1.1130223506829045e-04 beta[124] - 7.56159e-05 beta[125]
   - 5.40243e-05 beta[126] - 4.0102e-05 beta[127]
   + 0.00170198669759581 beta[128] + 0.000596407 beta[129]
   + 2.9046559631500004e-04 beta[130] + 1.6582570314917618e-04 beta[131]
   + 1.058344531304323e-04 beta[132] + 7.31554e-05 beta[133]
   + 5.36283e-05 beta[134] + 4.10881e-05 beta[135] - 0.000394335 beta[136]
   + 2.4778747940702478e-04 beta[137] + 1.6740856162720107e-04 beta[138]
   + 9.88599e-05 beta[139] + 5.92743e-05 beta[140] + 3.65736e-05 beta[141]
   + 2.31045e-05 beta[142] + 1.48095e-05 beta[143]
   - 0.00222621105941244 beta[144] - 0.000954052 beta[145]
   - 0.000440342 beta[146] - 2.3196036745216635e-04 beta[147]
   - 1.3669326091466364e-04 beta[148] - 8.79069e-05 beta[149]
   - 6.04586e-05 beta[150] - 4.3774e-05 beta[151]
   + 0.00247621723117931 beta[152] + 4.7277873827597294e-04 beta[153]
   + 1.2625435715407147e-04 beta[154] + 4.50164e-05 beta[155]
   + 2.2551e-05 beta[156] + 1.52847e-05 beta[157] + 1.2374e-05 beta[158]
   + 1.08247e-05 beta[159] + 9.4812150305095767e-04 beta[160]
   + 7.6016531245826091e-04 beta[161] + 0.000377085 beta[162]
   + 1.9472916903842525e-04 beta[163] + 1.0840883284408274e-04 beta[164]
   + 6.48589e-05 beta[165] + 4.12666e-05 beta[166] + 2.75964e-05 beta[167]
   - 0.00305472528787946 beta[168] - 9.8764110732693015e-04 beta[169]
   - 3.6674362259851522e-04 beta[170] - 1.6215816372253428e-04 beta[171]
   - 8.41233e-05 beta[172] - 4.97988e-05 beta[173] - 3.26229e-05 beta[174]
   - 2.30224e-05 beta[175] + 0.00106709267916095 beta[176]
   - 8.33124e-05 beta[177] - 1.1106118062070065e-04 beta[178]
   - 6.56536e-05 beta[179] - 3.51106e-05 beta[180] - 1.86545e-05 beta[181]
   - 1.00519e-05 beta[182] - 5.47466e-06 beta[183]
   + 0.0018520714752698 beta[184] + 9.1699980680706261e-04 beta[185]
   + 3.8754569619297159e-04 beta[186] + 0.00017812 beta[187]
   + 9.10324e-05 beta[188] + 5.14021e-05 beta[189] + 3.16093e-05 beta[190]
   + 2.0844e-05 beta[191] - 9.2850313616396998e-04 beta[192]
   + 8.23597e-06 beta[193] + 3.9217424512048724e-04 beta[194]
   - 0.000193704 beta[195] - 4.8158285467571495e-04 beta[196]
   + 0.000155085 beta[197] + 0.00061825 beta[198] + 7.78654e-05 beta[199]
   - 9.656675095916701e-04 beta[200] - 4.03777e-05 beta[201]
   + 5.6670513921052606e-04 beta[202] + 2.4284111657273661e-04 beta[203]
   - 2.7353814435208745e-04 beta[204] - 2.5142540032221694e-04 beta[205]
   + 4.06692e-05 beta[206] + 9.93458e-05 beta[207]
   + 3.5957573551373162e-04 beta[208] + 3.44615e-05 beta[209]
   - 2.6911741062307442e-04 beta[210] - 2.1711966109072512e-04 beta[211]
   + 1.0200284041418635e-04 beta[212] + 2.5203243998049351e-04 beta[213]
   + 4.20705e-05 beta[214] - 1.8590323478971457e-04 beta[215]
   - 8.97732e-06 beta[216] + 1.91274e-05 beta[217] + 7.83188e-05 beta[218]
   + 8.94076e-05 beta[219] - 6.30833e-06 beta[220] - 9.29227e-05 beta[221]
   - 3.54713e-05 beta[222] + 6.84724e-05 beta[223]
   + 4.4432959614293632e-04 beta[224] - 7.70916e-05 beta[225]
   - 2.6307969021779312e-04 beta[226] + 6.41245e-05 beta[227]
   + 1.803091236213474e-04 beta[228] - 1.2280682748635452e-04 beta[229]
   - 2.0150458974244623e-04 beta[230] + 1.3576143269833395e-04 beta[231]
   + 0.00125396465616282 beta[232] + 8.89973e-05 beta[233]
   - 6.2212226219786966e-04 beta[234] - 1.4159425545482487e-04 beta[235]
   + 0.000462925 beta[236] + 2.3795514711467576e-04 beta[237]
   - 2.73419519356226e-04 beta[238] - 2.3135968595236719e-04 beta[239]
   - 6.9947320402236729e-04 beta[240] - 2.46675e-05 beta[241]
   + 3.7086579875102112e-04 beta[242] + 7.81228e-05 beta[243]
   - 2.6862114210724755e-04 beta[244] - 1.5335588150329921e-04 beta[245]
   + 1.0581432739111463e-04 beta[246] + 1.0465588555680072e-04 beta[247]
   - 0.00127323936838537 beta[248] - 3.36368e-05 beta[249]
   + 6.0699261228768224e-04 beta[250] + 5.20831e-06 beta[251]
   - 4.6310640097397871e-04 beta[252] + 2.51832e-05 beta[253]
   + 4.6525579493170637e-04 beta[254] + 4.90656e-05 beta[255]
   - 3.640735343848013e-04 beta[256] + 2.17934e-05 beta[257]
   + 2.0584731654205775e-04 beta[258] - 2.24621e-06 beta[259]
   - 1.5111952140057185e-04 beta[260] - 7.33822e-07 beta[261]
   + 1.0389872767577471e-04 beta[262] - 5.49944e-05 beta[263]
   + 5.8380176540695223e-04 beta[264] - 2.9674e-05 beta[265]
   - 3.0438687545699636e-04 beta[266] + 3.58423e-05 beta[267]
   + 2.3174145642424485e-04 beta[268] - 6.45739e-05 beta[269]
   - 2.2544328758927003e-04 beta[270] + 9.797e-05 beta[271]
   + 0.00124884393016747 beta[272] + 5.117e-05 beta[273]
   - 6.2832446889508659e-04 beta[274] - 8.83869e-05 beta[275]
   + 0.000472192 beta[276] + 0.000147922 beta[277]
   - 3.3880333380967905e-04 beta[278] - 1.7453122016411945e-04 beta[279]
   + 2.96052e-05 beta[280] + 1.84064e-05 beta[281] + 9.80111e-06 beta[282]
   - 3.39613e-06 beta[283] - 3.118e-05 beta[284] - 4.33083e-05 beta[285]
   - 5.4031e-06 beta[286] + 5.19054e-05 beta[287]
   - 0.0308092341973545 beta[288] + 9.0790576155465829e-04 beta[289]
   - 0.00647266 beta[290] - 1.06863e-05 beta[291] + weighted_residual[6]
   = -0.0304445613613824
 R597: - 0.0314345230395576 beta[0] + 5.4629e-05 beta[1]
   + 0.000903285 beta[2] + 4.3804842846984757e-04 beta[3]
   + 1.8061829504988072e-04 beta[4] + 7.28295e-05 beta[5]
   + 2.95003e-05 beta[6] + 1.1766e-05 beta[7] + 0.00956036891444131 beta[8]
   - 0.0024471052924236 beta[9] - 0.00126596358768275 beta[10]
   - 5.2782880163987518e-04 beta[11] - 2.2109561844143986e-04 beta[12]
   - 9.78426e-05 beta[13] - 4.63317e-05 beta[14] - 2.33848e-05 beta[15]
   + 0.0232474838249477 beta[16] + 0.00661564684588772 beta[17]
   + 0.00194384 beta[18] + 6.6936510939355942e-04 beta[19]
   + 2.6838428564510478e-04 beta[20] + 1.2293233932760458e-04 beta[21]
   + 6.27571e-05 beta[22] + 3.48731e-05 beta[23]
   - 0.0530159115985942 beta[24] - 0.00842044393069137 beta[25]
   - 0.00186744413951696 beta[26] - 0.000528869 beta[27]
   - 1.8909352891414755e-04 beta[28] - 8.26914e-05 beta[29]
   - 4.20504e-05 beta[30] - 2.37375e-05 beta[31]
   + 0.0471284370091124 beta[32] + 0.00317780337119393 beta[33]
   + 1.0308814096518238e-04 beta[34] - 1.2264946439528182e-04 beta[35]
   - 8.82069e-05 beta[36] - 5.17958e-05 beta[37] - 3.05295e-05 beta[38]
   - 1.8866e-05 beta[39] + 0.00465925301964825 beta[40]
   + 0.00582955534484162 beta[41] + 0.00210808697124131 beta[42]
   + 8.3389576962830019e-04 beta[43] + 3.7530347398713682e-04 beta[44]
   + 1.904866185148061e-04 beta[45] + 1.0702639752397202e-04 beta[46]
   + 6.52456e-05 beta[47] - 0.0510058929777717 beta[48]
   - 0.00904176784325161 beta[49] - 0.00249620021393883 beta[50]
   - 9.086428079664176e-04 beta[51] - 4.0239631607073389e-04 beta[52]
   - 2.070211947242483e-04 beta[53] - 1.193577584970566e-04 beta[54]
   - 7.48867e-05 beta[55] + 0.0408712028057075 beta[56]
   + 0.00311424090731577 beta[57] + 0.000761532 beta[58]
   + 0.00031155 beta[59] + 0.000159042 beta[60] + 9.31571e-05 beta[61]
   + 5.99503e-05 beta[62] + 4.11376e-05 beta[63]
   + 0.017641725396001 beta[64] + 0.00536683261066355 beta[65]
   + 0.00117343043875514 beta[66] + 3.234757945672521e-04 beta[67]
   + 1.0698663240946057e-04 beta[68] + 3.84623e-05 beta[69]
   + 1.34522e-05 beta[70] + 3.57065e-06 beta[71]
   - 0.0670794776519063 beta[72] - 0.00811808494045595 beta[73]
   - 0.00153955497303529 beta[74] - 4.6284417857885723e-04 beta[75]
   - 1.8675881403178531e-04 beta[76] - 8.86972e-05 beta[77]
   - 4.6725e-05 beta[78] - 2.65617e-05 beta[79]
   + 0.0547961071807683 beta[80] + 0.00307292812476713 beta[81]
   + 3.5296626135461137e-04 beta[82] + 1.3985981189395689e-04 beta[83]
   + 8.4665e-05 beta[84] + 5.2981e-05 beta[85] + 3.38141e-05 beta[86]
   + 2.22827e-05 beta[87] - 0.00128689214702832 beta[88]
   + 0.00365707609360201 beta[89] + 9.3924689277723433e-04 beta[90]
   + 2.3877028158896855e-04 beta[91] + 6.21011e-05 beta[92]
   + 1.38989e-05 beta[93] - 6.32563e-08 beta[94] - 3.95537e-06 beta[95]
   - 3.2512669147933187e-04 beta[96] - 8.49538e-07 beta[97]
   - 1.37605e-05 beta[98] - 2.58311e-05 beta[99] - 2.84269e-05 beta[100]
   - 2.67507e-05 beta[101] - 2.38068e-05 beta[102] - 2.07784e-05 beta[103]
   + 8.4727011499974888e-04 beta[104] + 0.000425873 beta[105]
   + 2.0640148181719169e-04 beta[106] + 1.064311648309448e-04 beta[107]
   + 6.10089e-05 beta[108] + 3.87088e-05 beta[109] + 2.67189e-05 beta[110]
   + 1.96852e-05 beta[111] - 0.00100942740660271 beta[112]
   - 8.88592e-05 beta[113] + 2.64278e-05 beta[114] + 3.81335e-05 beta[115]
   + 3.28565e-05 beta[116] + 2.60082e-05 beta[117] + 2.03159e-05 beta[118]
   + 1.59749e-05 beta[119] - 0.00147506637435856 beta[120]
   - 8.2459554745393203e-04 beta[121] - 0.000431212 beta[122]
   - 0.000242507 beta[123] - 1.4910338234692914e-04 beta[124]
   - 9.90498e-05 beta[125] - 7.00016e-05 beta[126] - 5.1922e-05 beta[127]
   + 0.00269574637331887 beta[128] + 6.3253842325285375e-04 beta[129]
   + 2.2481956533877624e-04 beta[130] + 1.060135135500921e-04 beta[131]
   + 6.14938e-05 beta[132] + 4.0992e-05 beta[133] + 2.99322e-05 beta[134]
   + 2.32204e-05 beta[135] + 4.1124520242066272e-04 beta[136]
   + 5.9979020754754035e-04 beta[137] + 3.5325331548822174e-04 beta[138]
   + 2.0695056692492957e-04 beta[139] + 0.000128161 beta[140]
   + 8.41011e-05 beta[141] + 5.80099e-05 beta[142] + 4.16804e-05 beta[143]
   - 0.00278565952831837 beta[144] - 0.00101938 beta[145]
   - 4.5938628784802129e-04 beta[146] - 2.4839380457246417e-04 beta[147]
   - 1.5331632492999981e-04 beta[148] - 1.0367930977052907e-04 beta[149]
   - 7.47629e-05 beta[150] - 5.64926e-05 beta[151] + 0.00189879 beta[152]
   + 0.000255952 beta[153] + 4.84202e-05 beta[154] + 1.60994e-05 beta[155]
   + 1.15371e-05 beta[156] + 1.11931e-05 beta[157] + 1.11333e-05 beta[158]
   + 1.08349e-05 beta[159] + 0.000563608 beta[160]
   + 6.0238980535891275e-04 beta[161] + 0.0003142 beta[162]
   + 1.7033074148949307e-04 beta[163] + 0.000100177 beta[164]
   + 6.34428e-05 beta[165] + 4.26534e-05 beta[166] + 3.00506e-05 beta[167]
   - 0.00276555885295929 beta[168] - 8.0597783575270243e-04 beta[169]
   - 3.1138215842551421e-04 beta[170] - 1.5162081743747726e-04 beta[171]
   - 8.7242e-05 beta[172] - 5.63514e-05 beta[173] - 3.94497e-05 beta[174]
   - 2.92489e-05 beta[175] + 0.0016365603317781 beta[176]
   + 1.5178732732015342e-04 beta[177] + 9.96536e-06 beta[178]
   + 2.5062e-06 beta[179] + 6.04888e-06 beta[180] + 7.83609e-06 beta[181]
   + 8.00336e-06 beta[182] + 7.4517e-06 beta[183]
   + 0.00160949373673985 beta[184] + 6.6273647138359202e-04 beta[185]
   + 2.5930678219420741e-04 beta[186] + 0.000112043 beta[187]
   + 5.30086e-05 beta[188] + 2.70292e-05 beta[189] + 1.46444e-05 beta[190]
   + 8.33206e-06 beta[191] - 0.0013404822764905 beta[192]
   + 1.0480619659841425e-04 beta[193] + 8.2155084897799684e-04 beta[194]
   - 4.33463e-05 beta[195] - 8.2349621607127313e-04 beta[196]
   - 2.2228462978319215e-04 beta[197] + 0.000683195 beta[198]
   + 4.4392448073208565e-04 beta[199] - 7.7470188005640561e-04 beta[200]
   - 1.9672961176496064e-04 beta[201] + 2.7538061679971957e-04 beta[202]
   + 2.3985062362679729e-04 beta[203] - 1.00344e-05 beta[204]
   - 1.0076838809406079e-04 beta[205] - 6.00977e-05 beta[206]
   - 3.30625e-05 beta[207] + 0.000620553 beta[208]
   + 1.7655288538015351e-04 beta[209] - 2.7654046013821261e-04 beta[210]
   - 2.9299334649073662e-04 beta[211] + 6.85321e-05 beta[212]
   + 0.000280732 beta[213] + 5.36799e-05 beta[214]
   - 2.3511673191655975e-04 beta[215] + 3.4947264835202569e-04 beta[216]
   + 1.04781e-05 beta[217] - 0.000120456 beta[218] + 7.55861e-05 beta[219]
   + 1.2937512883454347e-04 beta[220] - 0.00010236 beta[221]
   - 1.7275461744342715e-04 beta[222] + 8.94888e-05 beta[223]
   + 0.000259605 beta[224] - 1.5120333484516406e-04 beta[225]
   - 2.3041658111012136e-04 beta[226] + 1.1992620646990628e-04 beta[227]
   + 2.1083612105291828e-04 beta[228] - 0.000103853 beta[229]
   - 1.9036579020325088e-04 beta[230] + 1.0467187387420355e-04 beta[231]
   + 3.2159374378618283e-04 beta[232] + 1.2926776121475396e-04 beta[233]
   - 7.40203e-05 beta[234] - 1.1429057954608817e-04 beta[235]
   + 2.68029e-06 beta[236] + 0.000107955 beta[237] + 5.88857e-05 beta[238]
   - 8.346e-05 beta[239] - 5.1526310972725947e-04 beta[240]
   - 6.2587e-05 beta[241] + 2.1187436560033326e-04 beta[242]
   + 5.85939e-05 beta[243] - 0.000122325 beta[244] - 6.72009e-05 beta[245]
   + 2.36673e-05 beta[246] + 2.21367e-05 beta[247] - 0.000562232 beta[248]
   + 4.2315e-05 beta[249] + 0.000291205 beta[250] - 6.63252e-05 beta[251]
   - 2.3922315914543028e-04 beta[252] + 9.99685e-05 beta[253]
   + 0.000279105 beta[254] - 5.98473e-05 beta[255]
   - 5.5492022570400484e-04 beta[256] - 1.3325e-05 beta[257]
   + 2.973228381604855e-04 beta[258] + 4.56478e-05 beta[259]
   - 2.2933540576585635e-04 beta[260] - 8.78508e-05 beta[261]
   + 1.4825573942330833e-04 beta[262] + 6.83682e-05 beta[263]
   + 3.9894369480726545e-04 beta[264] - 7.8673e-05 beta[265]
   - 2.4290554885823593e-04 beta[266] + 8.62261e-05 beta[267]
   + 0.000226212 beta[268] - 7.37442e-05 beta[269]
   - 2.1439359143701056e-04 beta[270] + 8.34e-05 beta[271]
   + 0.00125261083982123 beta[272] + 0.000115365 beta[273]
   - 5.864818122597894e-04 beta[274] - 1.5137666928483087e-04 beta[275]
   + 3.9081864230113505e-04 beta[276] + 1.6996716374339488e-04 beta[277]
   - 2.6436113740932894e-04 beta[278] - 1.7619148069995903e-04 beta[279]
   + 2.717602771226515e-04 beta[280] - 3.36705e-06 beta[281]
   - 1.4143469669152892e-04 beta[282] + 3.19949e-06 beta[283]
   + 1.1118285891559535e-04 beta[284] - 1.52661e-05 beta[285]
   - 1.24329611094634e-04 beta[286] + 9.10787e-06 beta[287]
   - 0.0309571697714706 beta[288] + 5.4476116659117732e-04 beta[289]
   - 0.00399619633605032 beta[290] - 7.7986e-06 beta[291]
   + weighted_residual[7] = -0.0306944805753814
 R598: - 0.00517212350451533 beta[0] - 0.00526148563741739 beta[1]
   - 0.00195011415239047 beta[2] - 7.6172673528113622e-04 beta[3]
   - 3.4628379265058169e-04 beta[4] - 0.000181741 beta[5]
   - 1.0632063231752314e-04 beta[6] - 6.70353e-05 beta[7]
   + 0.034375826045571 beta[8] + 0.00376024862697671 beta[9]
   + 0.000685274 beta[10] + 0.000219409 beta[11]
   + 1.1299735228304594e-04 beta[12] + 7.13919e-05 beta[13]
   + 4.82841e-05 beta[14] + 3.36459e-05 beta[15]
   - 0.029644911405363 beta[16] + 0.00193538873981944 beta[17]
   + 0.00104665556557572 beta[18] + 3.2867755602176193e-04 beta[19]
   + 9.06665e-05 beta[20] + 1.85882e-05 beta[21] - 2.24062e-06 beta[22]
   - 7.41235e-06 beta[23] - 0.00709377785572754 beta[24]
   - 0.00481371790645555 beta[25] - 0.00117550657772278 beta[26]
   - 2.4491124366031773e-04 beta[27] - 3.46544e-05 beta[28]
   + 1.01363e-05 beta[29] + 1.69411e-05 beta[30] + 1.54336e-05 beta[31]
   + 0.0143211402259782 beta[32] - 0.00204254851275627 beta[33]
   - 0.000933433 beta[34] - 4.1542836137188469e-04 beta[35]
   - 2.0257737327292346e-04 beta[36] - 1.0879744815480266e-04 beta[37]
   - 6.38627e-05 beta[38] - 4.04377e-05 beta[39]
   + 0.0135866718211917 beta[40] + 0.00966104517101035 beta[41]
   + 0.00265068207032879 beta[42] + 8.500781350516374e-04 beta[43]
   + 3.3477964314922387e-04 beta[44] + 1.5671765342770329e-04 beta[45]
   + 8.39872e-05 beta[46] + 4.99182e-05 beta[47]
   - 0.0270031696722945 beta[48] - 0.00623839880528432 beta[49]
   - 0.00168612847316745 beta[50] - 5.5834164859621988e-04 beta[51]
   - 2.2801062107434184e-04 beta[52] - 1.0970341127902932e-04 beta[53]
   - 5.98353e-05 beta[54] - 3.59175e-05 beta[55]
   + 0.00802113705392431 beta[56] - 0.00397358968855858 beta[57]
   - 6.4135522923874639e-04 beta[58] - 5.57915e-05 beta[59]
   + 2.42578e-05 beta[60] + 2.67754e-05 beta[61] + 2.02347e-05 beta[62]
   + 1.45367e-05 beta[63] + 0.0200347784062229 beta[64]
   + 0.00868027274927127 beta[65] + 0.00168675140497762 beta[66]
   + 3.5142443385310457e-04 beta[67] + 8.51971e-05 beta[68]
   + 2.24288e-05 beta[69] + 4.97107e-06 beta[70] - 3.31528e-07 beta[71]
   - 0.0368282302471547 beta[72] - 0.00446495266613113 beta[73]
   - 7.9537277623170448e-04 beta[74] - 1.8173015699992923e-04 beta[75]
   - 5.70468e-05 beta[76] - 2.27183e-05 beta[77] - 1.03627e-05 beta[78]
   - 5.12163e-06 beta[79] + 0.031781561828345 beta[80]
   - 0.00274240897350858 beta[81] - 7.982244273029228e-04 beta[82]
   - 0.000178571 beta[83] - 3.47081e-05 beta[84] - 1.67129e-06 beta[85]
   + 5.3583e-06 beta[86] + 6.07805e-06 beta[87]
   - 0.00535744565037056 beta[88] + 0.00624761137179145 beta[89]
   + 0.00163039730070994 beta[90] + 3.9363561178671578e-04 beta[91]
   + 9.67747e-05 beta[92] + 2.04546e-05 beta[93] - 3.9083e-07 beta[94]
   - 5.83656e-06 beta[95] + 0.00411970932501557 beta[96]
   + 4.0789077745292279e-04 beta[97] - 1.969077640384039e-04 beta[98]
   - 0.000243202 beta[99] - 1.9657634355084363e-04 beta[100]
   - 1.4693711726998309e-04 beta[101] - 1.0901865828457155e-04 beta[102]
   - 8.20455e-05 beta[103] + 0.00178797747349269 beta[104]
   + 7.6938821791120316e-04 beta[105] + 3.0777481135686041e-04 beta[106]
   + 1.2818761557429245e-04 beta[107] + 5.80371e-05 beta[108]
   + 2.86791e-05 beta[109] + 1.53096e-05 beta[110] + 8.68507e-06 beta[111]
   - 0.00207517694734112 beta[112] - 7.3711e-05 beta[113]
   + 1.6182274876557181e-04 beta[114] + 1.5437882311420114e-04 beta[115]
   + 1.171783142959343e-04 beta[116] + 8.56952e-05 beta[117]
   + 6.32743e-05 beta[118] + 4.7816e-05 beta[119]
   - 0.00226013241701464 beta[120] - 0.00127747014087192 beta[121]
   - 5.6132030634114681e-04 beta[122] - 2.5791971674232934e-04 beta[123]
   - 1.3027741919058344e-04 beta[124] - 7.25241e-05 beta[125]
   - 4.40154e-05 beta[126] - 2.87078e-05 beta[127]
   + 0.0019826407758553 beta[128] + 3.1177985106864366e-04 beta[129]
   + 2.03287e-05 beta[130] - 3.78581e-05 beta[131] - 4.25064e-05 beta[132]
   - 3.64389e-05 beta[133] - 2.96744e-05 beta[134] - 2.4133e-05 beta[135]
   + 0.00141379807721878 beta[136] + 0.00128859100821724 beta[137]
   + 6.0373127165930446e-04 beta[138] + 2.9270289219240968e-04 beta[139]
   + 1.5617867743876723e-04 beta[140] + 9.19684e-05 beta[141]
   + 5.90718e-05 beta[142] + 4.0758e-05 beta[143]
   - 0.00200870684743979 beta[144] - 8.6670974991747817e-04 beta[145]
   - 3.4648448186306381e-04 beta[146] - 0.000150868 beta[147]
   - 7.42824e-05 beta[148] - 4.0819e-05 beta[149] - 2.4393e-05 beta[150]
   - 1.54966e-05 beta[151] + 5.770795871646719e-04 beta[152]
   - 0.0004539 beta[153] - 2.2673234358884761e-04 beta[154]
   - 1.0542812678718114e-04 beta[155] - 5.15752e-05 beta[156]
   - 2.72294e-05 beta[157] - 1.56545e-05 beta[158] - 9.81246e-06 beta[159]
   + 6.7781434444837987e-04 beta[160] + 0.000842178 beta[161]
   + 3.6704921491908799e-04 beta[162] + 0.000163635 beta[163]
   + 8.02879e-05 beta[164] + 4.307e-05 beta[165] + 2.47002e-05 beta[166]
   + 1.48236e-05 beta[167] - 0.0015826057363206 beta[168]
   - 4.276073942243592e-04 beta[169] - 1.7454172922585397e-04 beta[170]
   - 8.1258e-05 beta[171] - 4.31875e-05 beta[172] - 2.52872e-05 beta[173]
   - 1.56836e-05 beta[174] - 1.00154e-05 beta[175]
   + 0.00112642043878197 beta[176] - 1.8768812465472611e-04 beta[177]
   - 7.90385e-05 beta[178] - 2.40691e-05 beta[179] - 5.11067e-06 beta[180]
   + 1.22753e-06 beta[181] + 3.28476e-06 beta[182] + 3.82096e-06 beta[183]
   + 8.8399723370868411e-04 beta[184] + 6.2281529601070692e-04 beta[185]
   + 2.5671226538507967e-04 beta[186] + 1.0536887440463001e-04 beta[187]
   + 4.59092e-05 beta[188] + 2.07963e-05 beta[189] + 9.17648e-06 beta[190]
   + 3.36565e-06 beta[191] + 0.00140172700340351 beta[192]
   - 7.7918134395466813e-04 beta[193] - 0.00167185837623954 beta[194]
   + 0.000118256 beta[195] + 0.00175175022835891 beta[196]
   + 0.00073812 beta[197] - 0.00122048776542296 beta[198]
   - 0.00113044 beta[199] - 0.00172273874803701 beta[200]
   + 5.3477249642041485e-04 beta[201] + 0.00162576033382546 beta[202]
   + 7.39356e-05 beta[203] - 0.00152182842207465 beta[204]
   - 0.000761685 beta[205] + 9.625344298956716e-04 beta[206]
   + 0.00100899682205143 beta[207] - 0.00137141299753571 beta[208]
   - 0.000366066 beta[209] + 2.1301060896342891e-04 beta[210]
   - 4.209e-05 beta[211] - 8.19321e-05 beta[212] + 0.0003902 beta[213]
   + 3.5562374091445051e-04 beta[214] - 3.8632126791759497e-04 beta[215]
   + 0.00151545855138147 beta[216] + 1.9152885197375999e-04 beta[217]
   - 5.6635872266732679e-04 beta[218] - 4.54591e-06 beta[219]
   + 5.0981078839281953e-04 beta[220] - 8.41698e-06 beta[221]
   - 5.9296460929658863e-04 beta[222] - 1.8716989353682775e-04 beta[223]
   + 0.00204245073554819 beta[224] + 2.11744e-05 beta[225]
   - 0.000998719 beta[226] - 6.21329e-05 beta[227] + 0.000582375 beta[228]
   - 1.2576437316498941e-04 beta[229] - 4.6057028473517938e-04 beta[230]
   + 3.6061774652227442e-04 beta[231] + 0.00147285116277726 beta[232]
   + 7.01473e-06 beta[233] - 0.000853303 beta[234]
   - 1.2457024239637395e-04 beta[235] + 7.7394936960084712e-04 beta[236]
   + 0.000418438 beta[237] - 5.2149238213565388e-04 beta[238]
   - 6.0091483610423817e-04 beta[239] - 0.00375926852388283 beta[240]
   - 5.18208e-05 beta[241] + 0.00199726557823705 beta[242]
   + 2.2981313793041171e-04 beta[243] - 0.00154445620221704 beta[244]
   - 4.82071404789951e-04 beta[245] + 0.00108124306403152 beta[246]
   + 5.2387864303648482e-04 beta[247] - 0.00352359397015176 beta[248]
   - 2.1245872251354081e-04 beta[249] + 0.00165321961432721 beta[250]
   + 0.000187169 beta[251] - 0.00121665702000656 beta[252]
   - 1.3883036791610242e-04 beta[253] + 0.00114719162833902 beta[254]
   + 2.8881483598585745e-04 beta[255] + 0.00385099061319603 beta[256]
   + 3.3096768283899318e-04 beta[257] - 0.00182370574800894 beta[258]
   - 3.9895316752716246e-04 beta[259] + 0.00132477906093142 beta[260]
   + 0.000468472 beta[261] - 0.00111015515123244 beta[262]
   - 6.5991874657007465e-04 beta[263] + 0.00333996413882165 beta[264]
   - 2.26487e-05 beta[265] - 0.00173131446190506 beta[266]
   - 3.077e-05 beta[267] + 0.00131105568384661 beta[268]
   + 3.56832e-05 beta[269] - 0.00111305089005042 beta[270]
   + 1.73011e-05 beta[271] - 0.00188206737039533 beta[272]
   - 1.37823443843225e-04 beta[273] + 9.5536935654656015e-04 beta[274]
   + 2.4185570173778346e-04 beta[275] - 6.8285141591963006e-04 beta[276]
   - 0.000278101 beta[277] + 0.000563734 beta[278]
   + 3.0380526067982591e-04 beta[279] - 0.00306971172796185 beta[280]
   - 6.87719e-05 beta[281] + 0.00153220427585695 beta[282]
   + 8.97877e-05 beta[283] - 0.00117627094669902 beta[284]
   - 0.000148409 beta[285] + 9.6212922932808933e-04 beta[286]
   + 1.7516456881991641e-04 beta[287] - 0.003857152862425 beta[288]
   + 7.9803343098507615e-04 beta[289] - 0.00718182458841103 beta[290]
   + 8.53609e-07 beta[291] + weighted_residual[8] = -0.00817197788843361
 R599: - 0.0457860663424818 beta[0] + 0.00584186866032518 beta[1]
   + 0.00274425051147978 beta[2] + 0.000879109 beta[3]
   + 2.6933635768926494e-04 beta[4] + 8.97972e-05 beta[5]
   + 3.7181e-05 beta[6] + 2.03423e-05 beta[7] - 0.0480656257569154 beta[8]
   - 0.0179574148328873 beta[9] - 0.00526104017935402 beta[10]
   - 0.00149598709086999 beta[11] - 4.4406971474882751e-04 beta[12]
   - 0.000144755 beta[13] - 5.44466e-05 beta[14] - 2.44789e-05 beta[15]
   + 0.1910217785200795 beta[16] + 0.0289369277322996 beta[17]
   + 0.00586853063138165 beta[18] + 0.00134581193241082 beta[19]
   + 3.3566754493443226e-04 beta[20] + 8.67741e-05 beta[21]
   + 2.03091e-05 beta[22] + 1.78877e-06 beta[23]
   - 0.1853920863604459 beta[24] - 0.0190975525271385 beta[25]
   - 0.00186402737663092 beta[26] + 6.52768e-05 beta[27]
   + 1.8605874238698233e-04 beta[28] + 0.000130346 beta[29]
   + 8.35872e-05 beta[30] + 5.47146e-05 beta[31]
   + 0.042980615659273 beta[32] - 0.00604102221655265 beta[33]
   - 0.00383518803699557 beta[34] - 0.00163806535252159 beta[35]
   - 7.1525520814728612e-04 beta[36] - 3.4319520059408455e-04 beta[37]
   - 1.8238887427729958e-04 beta[38] - 1.0588625195958611e-04 beta[39]
   + 0.0701672505895141 beta[40] + 0.0230771539711048 beta[41]
   + 0.0067661735390362 beta[42] + 0.00223406106505761 beta[43]
   + 8.6251874780516181e-04 beta[44] + 3.8573977117746299e-04 beta[45]
   + 0.000194701 beta[46] + 1.0798166987045303e-04 beta[47]
   - 0.1415404605053143 beta[48] - 0.0259886770061505 beta[49]
   - 0.00614705955846689 beta[50] - 0.00178033693821264 beta[51]
   - 6.1764039089263806e-04 beta[52] - 2.507594117405597e-04 beta[53]
   - 1.1555973496614871e-04 beta[54] - 5.8676e-05 beta[55]
   + 0.1397426193394725 beta[56] + 0.018816999220886 beta[57]
   + 0.00357188640750125 beta[58] + 0.000813169 beta[59]
   + 2.0090061856237277e-04 beta[60] + 4.71201e-05 beta[61]
   + 5.8349e-06 beta[62] - 5.0177e-06 beta[63]
   - 0.0305165756576131 beta[64] - 0.00299406088386785 beta[65]
   - 3.59802e-05 beta[66] + 0.000268695 beta[67] + 0.000200589 beta[68]
   + 0.000123349 beta[69] + 7.43888e-05 beta[70] + 4.59287e-05 beta[71]
   - 0.0818657267887773 beta[72] - 0.013219413469807 beta[73]
   - 0.00336717303520365 beta[74] - 0.00118064882065996 beta[75]
   - 4.8147786496887795e-04 beta[76] - 0.00021619 beta[77]
   - 1.0508487701275666e-04 beta[78] - 5.47347e-05 beta[79]
   + 0.1213016826358797 beta[80] + 0.0196155681199946 beta[81]
   + 0.0047932390730578 beta[82] + 0.00149296299601657 beta[83]
   + 5.3578182513622935e-04 beta[84] + 2.1299838598871286e-04 beta[85]
   + 9.18995e-05 beta[86] + 4.23427e-05 beta[87]
   - 0.0850580299495518 beta[88] - 0.0135696643562423 beta[89]
   - 0.00333231775667721 beta[90] - 0.000984908 beta[91]
   - 3.2769275405213121e-04 beta[92] - 1.2103160325406591e-04 beta[93]
   - 4.93546e-05 beta[94] - 2.20827e-05 beta[95]
   + 0.00266829498304423 beta[96] - 0.00133321672974669 beta[97]
   - 0.00117024863963178 beta[98] - 7.1368080651904844e-04 beta[99]
   - 4.1335266307397726e-04 beta[100] - 2.4315577457783471e-04 beta[101]
   - 1.4807365377405397e-04 beta[102] - 9.36476e-05 beta[103]
   + 0.00976130495445724 beta[104] + 0.00128475623831658 beta[105]
   + 6.88197e-05 beta[106] - 8.09843e-05 beta[107] - 6.77564e-05 beta[108]
   - 4.25624e-05 beta[109] - 2.59787e-05 beta[110] - 1.67993e-05 beta[111]
   + 0.00521468328588531 beta[112] + 0.00179941219603871 beta[113]
   + 9.1970840132668118e-04 beta[114] + 5.0312419106325027e-04 beta[115]
   + 2.8745774452163198e-04 beta[116] + 1.7243310697855307e-04 beta[117]
   + 1.0891424749750561e-04 beta[118] + 7.23443e-05 beta[119]
   - 0.00818689086980372 beta[120] - 0.00202472542230425 beta[121]
   - 5.5750230902961828e-04 beta[122] - 1.8318128149505343e-04 beta[123]
   - 7.90476e-05 beta[124] - 4.46973e-05 beta[125] - 2.96574e-05 beta[126]
   - 2.09429e-05 beta[127] - 0.00431327121318474 beta[128]
   - 0.00100678546628249 beta[129] - 0.000431316 beta[130]
   - 2.3584176292072687e-04 beta[131] - 1.4281660024702839e-04 beta[132]
   - 9.222e-05 beta[133] - 6.2923e-05 beta[134] - 4.51737e-05 beta[135]
   - 1.927525012867508e-04 beta[136] + 0.00104660861083598 beta[137]
   + 5.5604919882281994e-04 beta[138] + 2.8910682745310963e-04 beta[139]
   + 1.6937713278452189e-04 beta[140] + 1.111265853429672e-04 beta[141]
   + 7.87231e-05 beta[142] + 5.84922e-05 beta[143]
   - 6.9164945435009337e-04 beta[144] - 0.000273491 beta[145]
   - 0.000175065 beta[146] - 0.000110756 beta[147] - 7.11075e-05 beta[148]
   - 4.74709e-05 beta[149] - 3.30016e-05 beta[150] - 2.36988e-05 beta[151]
   + 0.00537510359954768 beta[152] + 8.285475765553936e-04 beta[153]
   + 0.000143429 beta[154] + 2.33471e-05 beta[155] - 3.95294e-06 beta[156]
   - 1.21469e-05 beta[157] - 1.46605e-05 beta[158] - 1.48878e-05 beta[159]
   + 0.000416605 beta[160] - 2.1356040283583238e-04 beta[161]
   - 9.4374e-05 beta[162] - 1.83342e-05 beta[163] + 1.17788e-05 beta[164]
   + 2.15581e-05 beta[165] + 2.33436e-05 beta[166] + 2.21426e-05 beta[167]
   - 0.00146486068531481 beta[168] - 6.0736118558094943e-04 beta[169]
   - 2.1178540951762002e-04 beta[170] - 9.65461e-05 beta[171]
   - 5.48067e-05 beta[172] - 3.46384e-05 beta[173] - 2.29546e-05 beta[174]
   - 1.56087e-05 beta[175] + 0.0016297485600751 beta[176]
   + 8.0844972997281509e-04 beta[177] + 0.000421859 beta[178]
   + 2.2047814297995104e-04 beta[179] + 1.1654054152586265e-04 beta[180]
   + 6.21811e-05 beta[181] + 3.29513e-05 beta[182] + 1.67643e-05 beta[183]
   - 0.00369098094069621 beta[184] - 8.5301755302923988e-04 beta[185]
   - 3.0195541735864435e-04 beta[186] - 1.3340785204438903e-04 beta[187]
   - 6.4824e-05 beta[188] - 3.26891e-05 beta[189] - 1.64133e-05 beta[190]
   - 7.73512e-06 beta[191] - 1.9303561188292823e-04 beta[192]
   - 7.5558637298927124e-04 beta[193] - 7.1790743667129477e-04 beta[194]
   + 2.7279913009301611e-04 beta[195] + 0.00101114633367483 beta[196]
   + 4.9773450727443004e-04 beta[197] - 5.2520968908208589e-04 beta[198]
   - 6.9880329403615622e-04 beta[199] - 0.0030045531231673 beta[200]
   + 8.0572085180107076e-04 beta[201] + 0.00246981743302815 beta[202]
   - 0.000275111 beta[203] - 0.00259989292106707 beta[204]
   - 7.3039952313097686e-04 beta[205] + 0.00209842877787239 beta[206]
   + 0.00137579518713675 beta[207] + 0.00507105576126637 beta[208]
   - 0.000827237 beta[209] - 0.00351490946136407 beta[210]
   + 3.6944419860105609e-04 beta[211] + 0.00354036585632345 beta[212]
   + 6.7739327851206756e-04 beta[213] - 0.00313418422729604 beta[214]
   - 0.0016128929789523 beta[215] + 0.00130176406709435 beta[216]
   + 0.000799205 beta[217] - 2.11781e-05 beta[218]
   - 6.82628380881794e-04 beta[219] - 0.000627288 beta[220]
   + 1.4612317905421014e-04 beta[221] + 7.8385038102783753e-04 beta[222]
   + 4.1852633732245812e-04 beta[223] - 0.00551829525525435 beta[224]
   - 4.2648863221376272e-04 beta[225] + 0.00275522234958661 beta[226]
   + 0.00067934 beta[227] - 0.00203533123885506 beta[228]
   - 9.4326049462091293e-04 beta[229] + 0.00155504989192819 beta[230]
   + 0.00117885514932314 beta[231] + 0.00366640764441775 beta[232]
   - 2.9794812693856434e-04 beta[233] - 0.00241458278644082 beta[234]
   - 6.84952e-05 beta[235] + 0.0024021838118626 beta[236]
   + 0.000882836 beta[237] - 0.00209879543420185 beta[238]
   - 0.00173174700817887 beta[239] - 0.00162573567727146 beta[240]
   + 0.000858037 beta[241] + 0.00162949708214217 beta[242]
   - 6.1555273494038546e-04 beta[243] - 0.00208452809864289 beta[244]
   - 0.000229792 beta[245] + 0.00203327096476629 beta[246]
   + 0.00113668145876878 beta[247] - 0.00197367333714636 beta[248]
   - 0.000977633 beta[249] + 3.6253687584268559e-04 beta[250]
   + 0.00098651 beta[251] + 3.9362125501661013e-04 beta[252]
   - 5.7877664598634745e-04 beta[253] - 6.5882730948591689e-04 beta[254]
   + 1.4698446173035329e-04 beta[255] + 0.00490125015813254 beta[256]
   + 0.000687542 beta[257] - 0.00226760011088551 beta[258]
   - 9.1707463518215875e-04 beta[259] + 0.00152345382393587 beta[260]
   + 0.00109468382030424 beta[261] - 0.00108157208220873 beta[262]
   - 0.00131825548492118 beta[263] - 0.00498386212974591 beta[264]
   - 1.0270710536504376e-04 beta[265] + 0.0027291972057365 beta[266]
   + 3.5128558769134726e-04 beta[267] - 0.00235583262040752 beta[268]
   - 8.7430670422871662e-04 beta[269] + 0.00201965043054735 beta[270]
   + 0.00150491889574385 beta[271] + 0.00127059281570502 beta[272]
   - 0.000515276 beta[273] - 0.00108072581521345 beta[274]
   + 4.5551545960408356e-04 beta[275] + 0.00137753503501839 beta[276]
   + 2.12361e-05 beta[277] - 0.00142590041918035 beta[278]
   - 6.2922778515969073e-04 beta[279] + 0.00341524922116206 beta[280]
   + 8.2092434300859549e-04 beta[281] - 0.0013083426201346 beta[282]
   - 9.8259455004523488e-04 beta[283] + 4.5849773435336521e-04 beta[284]
   + 7.9681918503103546e-04 beta[285] - 2.71204e-05 beta[286]
   - 5.081435182156585e-04 beta[287] - 0.0412950643056124 beta[288]
   + 0.00155259011681048 beta[289] + 0.0113659161072361 beta[290]
   + 5.36176e-07 beta[291] + weighted_residual[9] = -0.0323708096285408
 R600: 0.00151385599922702 beta[0] - 0.00293835983174845 beta[1]
   - 0.00187052733444781 beta[2] - 7.7161080121580902e-04 beta[3]
   - 2.9365821569842692e-04 beta[4] - 1.0409328007317518e-04 beta[5]
   - 3.04307e-05 beta[6] - 2.58975e-06 beta[7]
   - 0.00636970468916161 beta[8] - 0.00538309300690028 beta[9]
   - 0.00141913757091573 beta[10] - 2.4928136117403676e-04 beta[11]
   - 1.04274e-05 beta[12] + 1.76799e-05 beta[13] + 1.1034e-05 beta[14]
   + 3.66072e-06 beta[15] + 0.1086187378081004 beta[16]
   + 0.01540184552282 beta[17] + 0.00307311457200315 beta[18]
   + 6.0276739926711832e-04 beta[19] + 8.91819e-05 beta[20]
   - 1.08951e-05 beta[21] - 2.37669e-05 beta[22] - 2.00119e-05 beta[23]
   - 0.1162144441668172 beta[24] - 0.00857946541460861 beta[25]
   - 1.3579378542249537e-04 beta[26] + 3.735156623781765e-04 beta[27]
   + 0.000244928 beta[28] + 1.4169722897870092e-04 beta[29]
   + 8.4829e-05 beta[30] + 5.35659e-05 beta[31]
   - 0.0226792328326137 beta[32] - 0.0129344217670589 beta[33]
   - 0.00448036276586319 beta[34] - 0.00158752653326266 beta[35]
   - 6.303314633789894e-04 beta[36] - 2.8682566946855144e-04 beta[37]
   - 1.4822274432083724e-04 beta[38] - 8.49719e-05 beta[39]
   + 0.1283440562123862 beta[40] + 0.0265192179845431 beta[41]
   + 0.00657910559924745 beta[42] + 0.00198865206510621 beta[43]
   + 7.3091962579995039e-04 beta[44] + 0.000319373 beta[45]
   + 1.6062538921698461e-04 beta[46] + 9.00958e-05 beta[47]
   - 0.177388288748607 beta[48] - 0.0268403809963913 beta[49]
   - 0.00571789 beta[50] - 0.00155861692432049 beta[51]
   - 5.2972078309139513e-04 beta[52] - 2.1914562058250475e-04 beta[53]
   - 1.0659339005813106e-04 beta[54] - 5.87703e-05 beta[55]
   + 0.1594305616160333 beta[56] + 0.0197443437989412 beta[57]
   + 0.0034350289085978 beta[58] + 7.303104008796877e-04 beta[59]
   + 0.000179708 beta[60] + 5.00605e-05 beta[61] + 1.57513e-05 beta[62]
   + 5.74371e-06 beta[63] - 0.0647092289652345 beta[64]
   - 0.0071160026913817 beta[65] - 5.7989044084634804e-04 beta[66]
   + 1.3817374171062055e-04 beta[67] + 1.4335017226670564e-04 beta[68]
   + 9.24318e-05 beta[69] + 5.68956e-05 beta[70] + 3.58334e-05 beta[71]
   + 0.0043373403089639 beta[72] - 0.00372532361369164 beta[73]
   - 0.00176600630420798 beta[74] - 7.1629211957274102e-04 beta[75]
   - 3.0188376924305816e-04 beta[76] - 0.000140463 beta[77]
   - 7.31795e-05 beta[78] - 4.2284e-05 beta[79]
   + 0.00653502156203013 beta[80] + 0.00687859956227975 beta[81]
   + 0.00237394730032789 beta[82] + 7.5160818043775455e-04 beta[83]
   + 2.5113289297382899e-04 beta[84] + 9.36298e-05 beta[85]
   + 4.01002e-05 beta[86] + 1.99429e-05 beta[87]
   - 0.0112364059493428 beta[88] - 0.00447074825627922 beta[89]
   - 0.0013271961751196 beta[90] - 3.2452279102322749e-04 beta[91]
   - 6.60175e-05 beta[92] - 5.89658e-06 beta[93] + 5.75458e-06 beta[94]
   + 6.37435e-06 beta[95] + 0.010289039912553 beta[96]
   - 9.1777124324078044e-04 beta[97] - 0.00144675313799158 beta[98]
   - 9.2668913707739053e-04 beta[99] - 5.2541122642105231e-04 beta[100]
   - 2.9284136255086862e-04 beta[101] - 0.000164989 beta[102]
   - 9.44689e-05 beta[103] + 0.0118501841712516 beta[104]
   + 0.00148230893164411 beta[105] + 1.3742727884315164e-04 beta[106]
   - 3.00073e-05 beta[107] - 2.88789e-05 beta[108] - 1.44424e-05 beta[109]
   - 6.09994e-06 beta[110] - 2.69656e-06 beta[111]
   + 0.0031186716636445 beta[112] + 0.00144389061980711 beta[113]
   + 0.000869783 beta[114] + 4.8642329319824638e-04 beta[115]
   + 2.6713130026109234e-04 beta[116] + 1.4872352129735741e-04 beta[117]
   + 8.51285e-05 beta[118] + 5.03588e-05 beta[119]
   - 0.00999629428599696 beta[120] - 0.00203058506023881 beta[121]
   - 4.7777576560897769e-04 beta[122] - 0.000137618 beta[123]
   - 5.6196e-05 beta[124] - 3.22392e-05 beta[125] - 2.18068e-05 beta[126]
   - 1.53649e-05 beta[127] - 0.0048815788415935 beta[128]
   - 9.8825353229096383e-04 beta[129] - 0.000398024 beta[130]
   - 2.0544013251628981e-04 beta[131] - 1.1489018700875651e-04 beta[132]
   - 6.69335e-05 beta[133] - 4.0477e-05 beta[134] - 2.55003e-05 beta[135]
   + 6.4387865793237022e-04 beta[136] + 0.00106546395278239 beta[137]
   + 4.7008332037254169e-04 beta[138] + 2.2260623136130723e-04 beta[139]
   + 0.000125541 beta[140] + 8.12438e-05 beta[141] + 5.69356e-05 beta[142]
   + 4.16833e-05 beta[143] - 0.000244034 beta[144]
   - 1.3713469935019458e-04 beta[145] - 1.542192285651951e-04 beta[146]
   - 0.000113074 beta[147] - 7.78259e-05 beta[148] - 5.51038e-05 beta[149]
   - 4.08083e-05 beta[150] - 3.1421e-05 beta[151]
   + 0.00533385804040292 beta[152] + 6.9329745414556517e-04 beta[153]
   + 1.1225938570835661e-04 beta[154] + 1.96682e-05 beta[155]
   - 7.72038e-07 beta[156] - 6.33293e-06 beta[157] - 7.31075e-06 beta[158]
   - 6.61435e-06 beta[159] + 0.00222369838939733 beta[160]
   + 0.000106534 beta[161] + 5.28215e-05 beta[162] + 6.86506e-05 beta[163]
   + 6.54841e-05 beta[164] + 5.57019e-05 beta[165] + 4.57949e-05 beta[166]
   + 3.7429e-05 beta[167] - 0.0021067065433727 beta[168]
   - 7.8043759441173005e-04 beta[169] - 2.8380338297644733e-04 beta[170]
   - 0.000137144 beta[171] - 8.23134e-05 beta[172] - 5.58224e-05 beta[173]
   - 4.07248e-05 beta[174] - 3.1277e-05 beta[175]
   - 9.6223780546200515e-04 beta[176] + 2.114898069984123e-04 beta[177]
   + 0.000198399 beta[178] + 1.0792153231253276e-04 beta[179]
   + 5.36495e-05 beta[180] + 2.61249e-05 beta[181] + 1.25446e-05 beta[182]
   + 5.84143e-06 beta[183] - 0.00229298097823568 beta[184]
   - 0.000262349 beta[185] - 5.56303e-05 beta[186] - 1.23732e-05 beta[187]
   + 4.30023e-06 beta[188] + 1.10582e-05 beta[189] + 1.31687e-05 beta[190]
   + 1.31989e-05 beta[191] + 0.00488248552159539 beta[192]
   - 0.00243479975961284 beta[193] - 0.00487370889396319 beta[194]
   + 0.00152819785504152 beta[195] + 0.00595692267079287 beta[196]
   + 9.3537453387467287e-04 beta[197] - 0.00541046645100846 beta[198]
   - 0.0030432919838729 beta[199] - 0.00343768392591812 beta[200]
   + 0.00213152830586443 beta[201] + 0.00376113 beta[202]
   - 0.00144107800859389 beta[203] - 0.0047936747988731 beta[204]
   - 5.7401684825398257e-04 beta[205] + 0.0044679483355734 beta[206]
   + 0.00236015419750552 beta[207] + 0.00270092374935201 beta[208]
   - 0.00143571500198562 beta[209] - 0.00262103023955015 beta[210]
   + 0.00108685226845885 beta[211] + 0.00322588494628269 beta[212]
   + 9.17993e-05 beta[213] - 0.0030801692563212 beta[214]
   - 0.00118345430642438 beta[215] + 0.00387284409886831 beta[216]
   + 6.1284477931683294e-04 beta[217] - 0.00164625667510017 beta[218]
   - 7.0245861668044834e-04 beta[219] + 9.3208849727577803e-04 beta[220]
   + 0.000615483 beta[221] - 0.000595139 beta[222]
   - 5.3961432775573943e-04 beta[223] - 0.00615714790263759 beta[224]
   + 2.4888584291637896e-04 beta[225] + 0.00366256517793672 beta[226]
   + 0.000147657 beta[227] - 0.00332958049824241 beta[228]
   - 9.7263763053164257e-04 beta[229] + 0.0028612230927237 beta[230]
   + 0.0018134005204085 beta[231] + 0.00178312486319587 beta[232]
   - 0.00102212204090642 beta[233] - 0.00195101453826432 beta[234]
   + 6.4249842800433231e-04 beta[235] + 0.0025529060687958 beta[236]
   + 4.9486924877014955e-04 beta[237] - 0.00246680472643445 beta[238]
   - 0.00168971376290928 beta[239] + 6.14125e-05 beta[240]
   + 0.0012977919319346 beta[241] + 9.72500265229674e-04 beta[242]
   - 0.00114387712070189 beta[243] - 0.0017787355534353 beta[244]
   + 0.000315145 beta[245] + 0.00194398908788438 beta[246]
   + 5.785498183831948e-04 beta[247] - 0.00322220306767887 beta[248]
   - 0.00101974447441536 beta[249] + 0.00108945555131532 beta[250]
   + 0.00114219797676764 beta[251] - 2.8296769587527674e-04 beta[252]
   - 0.000991781 beta[253] - 1.2309336490722085e-04 beta[254]
   + 8.2923034648813151e-04 beta[255] + 0.00596658694680342 beta[256]
   + 0.000384802 beta[257] - 0.0030730317614227 beta[258]
   - 6.6593384057427442e-04 beta[259] + 0.0024607533563157 beta[260]
   + 0.00114710592100651 beta[261] - 0.00198861729404233 beta[262]
   - 0.00170181465947756 beta[263] - 0.00414141301682439 beta[264]
   + 0.000386536 beta[265] + 0.00258985017700349 beta[266]
   - 0.000197139 beta[267] - 0.00260793777765152 beta[268]
   - 5.0120219714935941e-04 beta[269] + 0.00244645560228767 beta[270]
   + 0.00133983320785663 beta[271] - 0.000403697 beta[272]
   - 9.1936477902882798e-04 beta[273] - 3.9902731680437975e-04 beta[274]
   + 9.7746932099251373e-04 beta[275] + 0.00107315141891842 beta[276]
   - 5.0334718430795737e-04 beta[277] - 0.00134690841039674 beta[278]
   - 1.0904013802783032e-04 beta[279] + 0.00467091315439776 beta[280]
   + 9.3276184439169247e-04 beta[281] - 0.00195810509734029 beta[282]
   - 0.00118087963606003 beta[283] + 0.000969799 beta[284]
   + 0.00111826598064586 beta[285] - 4.3081352628892861e-04 beta[286]
   - 0.000996824 beta[287] + 0.0056716950065746 beta[288]
   + 0.00240559706858647 beta[289] + 0.0143277926311958 beta[290]
   + 5.02603e-06 beta[291] + weighted_residual[10] = 0.0171719495869786
 R601: 0.0637298748269426 beta[0] - 0.00737107051675353 beta[1]
   - 0.00487697478228823 beta[2] - 0.00206585222747187 beta[3]
   - 8.7078947399309506e-04 beta[4] - 3.9859679087540014e-04 beta[5]
   - 0.000203042 beta[6] - 0.000114583 beta[7] + 0.0459006792344303 beta[8]
   + 0.0172941485476269 beta[9] + 0.00565686839637505 beta[10]
   + 0.0019454144596472 beta[11] + 7.4317576964310359e-04 beta[12]
   + 3.2289713931620088e-04 beta[13] + 1.598404814475172e-04 beta[14]
   + 8.8778e-05 beta[15] - 0.1313956048789132 beta[16]
   - 0.02237435048429 beta[17] - 0.00492563197290574 beta[18]
   - 0.00128912457221943 beta[19] - 4.0473276844454615e-04 beta[20]
   - 0.000154866 beta[21] - 7.16712e-05 beta[22] - 3.88274e-05 beta[23]
   + 0.1081663969511466 beta[24] + 0.0129825126281344 beta[25]
   + 0.00150630106262793 beta[26] + 3.15125e-05 beta[27]
   - 9.44313e-05 beta[28] - 6.48736e-05 beta[29] - 3.6297e-05 beta[30]
   - 1.9907e-05 beta[31] - 0.0243789120885447 beta[32]
   + 0.00356104376094652 beta[33] + 0.00256768950974999 beta[34]
   + 0.00112533117025275 beta[35] + 4.7830581896610841e-04 beta[36]
   + 2.1579612988644741e-04 beta[37] + 1.0622333950406875e-04 beta[38]
   + 5.71837e-05 beta[39] - 0.0469445426400225 beta[40]
   - 0.0142469774652389 beta[41] - 0.00429258 beta[42]
   - 0.00136595497809508 beta[43] - 4.8503214994461086e-04 beta[44]
   - 1.9841643242664457e-04 beta[45] - 9.41126e-05 beta[46]
   - 5.09082e-05 beta[47] + 0.0809634994502105 beta[48]
   + 0.0143790064467432 beta[49] + 0.00297683143558655 beta[50]
   + 6.6241529447929497e-04 beta[51] + 1.6118810820407058e-04 beta[52]
   + 4.76028e-05 beta[53] + 1.98474e-05 beta[54] + 1.17581e-05 beta[55]
   - 0.0594734901340185 beta[56] - 0.0061771047246751 beta[57]
   - 0.000200897 beta[58] + 0.000288922 beta[59]
   + 1.9096382778238679e-04 beta[60] + 9.83679e-05 beta[61]
   + 4.88359e-05 beta[62] + 2.46792e-05 beta[63]
   - 0.0161278102941831 beta[64] - 0.00570411115149645 beta[65]
   - 0.00219626336624652 beta[66] - 8.3557433736113139e-04 beta[67]
   - 0.000327417 beta[68] - 1.3784320713111365e-04 beta[69]
   - 6.39204e-05 beta[70] - 3.28392e-05 beta[71]
   + 0.081723422781496 beta[72] + 0.0134183647796112 beta[73]
   + 0.00295248518744649 beta[74] + 0.00076824 beta[75]
   + 2.2747116843181556e-04 beta[76] + 7.86724e-05 beta[77]
   + 3.31554e-05 beta[78] + 1.71251e-05 beta[79]
   - 0.0804620361779166 beta[80] - 0.0109631767824181 beta[81]
   - 0.00167937701448367 beta[82] - 0.000236106 beta[83]
   - 1.36408e-05 beta[84] + 1.01611e-05 beta[85] + 6.47176e-06 beta[86]
   + 2.21091e-06 beta[87] + 0.0307852970661779 beta[88]
   + 0.00149562629459698 beta[89] - 0.000554107 beta[90]
   - 3.5859467620319094e-04 beta[91] - 1.5962922802963668e-04 beta[92]
   - 6.60631e-05 beta[93] - 2.71898e-05 beta[94] - 1.13615e-05 beta[95]
   + 0.00786884823123726 beta[96] + 0.00171571562418459 beta[97]
   + 0.000390886 beta[98] + 4.86654e-05 beta[99] - 3.85067e-05 beta[100]
   - 5.44789e-05 beta[101] - 5.12503e-05 beta[102] - 4.3953e-05 beta[103]
   - 0.000914883 beta[104] + 4.58286e-05 beta[105] + 0.000186806 beta[106]
   + 1.6602739853786183e-04 beta[107] + 1.2434717889545592e-04 beta[108]
   + 8.98226e-05 beta[109] + 6.51969e-05 beta[110] + 4.82705e-05 beta[111]
   - 0.00421484744662288 beta[112] - 0.00141564049184158 beta[113]
   - 6.0555289420770894e-04 beta[114] - 2.9478974720864809e-04 beta[115]
   - 1.5807948512630831e-04 beta[116] - 9.18506e-05 beta[117]
   - 5.71301e-05 beta[118] - 3.76547e-05 beta[119]
   + 0.00245533274133996 beta[120] + 8.2465981494469977e-04 beta[121]
   + 2.8793584820812121e-04 beta[122] + 1.0096045571007244e-04 beta[123]
   + 3.39186e-05 beta[124] + 9.72574e-06 beta[125] + 1.20329e-06 beta[126]
   - 1.53189e-06 beta[127] + 0.000879119 beta[128]
   + 5.4740929915853638e-04 beta[129] + 3.4837355429774076e-04 beta[130]
   + 0.000221806 beta[131] + 1.4346246971302649e-04 beta[132]
   + 9.49143e-05 beta[133] + 6.44327e-05 beta[134] + 4.49237e-05 beta[135]
   - 0.00126440539147057 beta[136] - 8.8796064410758371e-04 beta[137]
   - 5.0522533596829332e-04 beta[138] - 2.8634666101304246e-04 beta[139]
   - 1.6880644867208779e-04 beta[140] - 1.0467919580447583e-04 beta[141]
   - 6.8346e-05 beta[142] - 4.68278e-05 beta[143]
   + 0.00149680334763235 beta[144] + 0.000496599 beta[145]
   + 0.0001924 beta[146] + 7.77682e-05 beta[147] + 3.2092e-05 beta[148]
   + 1.38726e-05 beta[149] + 6.77973e-06 beta[150] + 4.15396e-06 beta[151]
   - 0.00186249402063958 beta[152] - 0.000207998 beta[153]
   + 7.50769e-05 beta[154] + 1.0349829851115546e-04 beta[155]
   + 8.51764e-05 beta[156] + 6.30608e-05 beta[157] + 4.53746e-05 beta[158]
   + 3.25562e-05 beta[159] - 2.9019222731821611e-04 beta[160]
   - 2.6335788429943113e-04 beta[161] - 2.0687151119410738e-04 beta[162]
   - 1.4122628002584276e-04 beta[163] - 9.26051e-05 beta[164]
   - 6.10184e-05 beta[165] - 4.12325e-05 beta[166] - 2.88187e-05 beta[167]
   + 0.00229674454628406 beta[168] + 7.5405920511436545e-04 beta[169]
   + 0.000285193 beta[170] + 0.00011757 beta[171] + 5.05116e-05 beta[172]
   + 2.21655e-05 beta[173] + 9.92485e-06 beta[174] + 4.6462e-06 beta[175]
   - 0.00146647852451159 beta[176] - 5.0045950343358039e-04 beta[177]
   - 1.5356820352433652e-04 beta[178] - 3.64101e-05 beta[179]
   + 9.65609e-07 beta[180] + 1.10049e-05 beta[181] + 1.2021e-05 beta[182]
   + 1.04145e-05 beta[183] + 7.93868e-05 beta[184]
   - 1.7008532561276019e-04 beta[185] - 1.3760635722131443e-04 beta[186]
   - 9.17319e-05 beta[187] - 5.78435e-05 beta[188] - 3.58949e-05 beta[189]
   - 2.23354e-05 beta[190] - 1.40963e-05 beta[191]
   + 0.00531047537195336 beta[192] - 0.00140665030279479 beta[193]
   - 0.00454669436389126 beta[194] + 1.6865049411389645e-04 beta[195]
   + 0.00466058347649112 beta[196] + 0.00179533554357868 beta[197]
   - 0.00360064558257092 beta[198] - 0.00312495834075475 beta[199]
   - 5.5378438077829419e-04 beta[200] + 0.00110277155422021 beta[201]
   + 0.00155898166297601 beta[202] - 2.7774264779705134e-04 beta[203]
   - 0.0018591539962771 beta[204] - 8.6538237139209399e-04 beta[205]
   + 0.00123715770556895 beta[206] + 0.00142895405973079 beta[207]
   - 0.00342750659046147 beta[208] - 5.6642620949555196e-04 beta[209]
   + 0.0012589642992164 beta[210] + 2.6236764261463132e-04 beta[211]
   - 9.6227165432461478e-04 beta[212] - 1.5865432287315482e-04 beta[213]
   + 0.00107727279194519 beta[214] + 0.000478968 beta[215]
   + 0.00185448251171055 beta[216] - 4.01295e-05 beta[217]
   - 0.00107677897141848 beta[218] + 3.79408e-05 beta[219]
   + 0.00125122079071771 beta[220] + 4.6444683035541965e-04 beta[221]
   - 0.00118548419598956 beta[222] - 0.00113680353980014 beta[223]
   + 0.0010147422327648 beta[224] + 3.9513618171749108e-04 beta[225]
   - 0.000164353 beta[226] - 3.2920731232420652e-04 beta[227]
   - 3.2661759966806452e-04 beta[228] - 1.9226277342424737e-04 beta[229]
   + 2.4956029431761375e-04 beta[230] + 6.1468446815018626e-04 beta[231]
   - 0.00109157189355368 beta[232] - 3.4061678950396846e-04 beta[233]
   + 3.1762826929907797e-04 beta[234] + 2.9539589035601559e-04 beta[235]
   - 4.71741e-05 beta[236] - 6.00715e-05 beta[237]
   + 1.87748883426957e-04 beta[238] + 9.91175e-05 beta[239]
   + 9.037571555904067e-04 beta[240] + 1.1329810740049336e-04 beta[241]
   - 0.000413178 beta[242] - 9.17344e-05 beta[243]
   + 3.805687987771291e-04 beta[244] + 1.3226711189627394e-04 beta[245]
   - 5.063576923788638e-04 beta[246] - 4.7079066044276646e-04 beta[247]
   - 8.1970558716081758e-04 beta[248] + 4.62378e-05 beta[249]
   + 4.6626358791638139e-04 beta[250] - 6.853e-05 beta[251]
   - 0.000520205 beta[252] - 7.13717e-05 beta[253]
   + 5.783132166217455e-04 beta[254] + 4.1347265764825065e-04 beta[255]
   - 5.6803034880639834e-04 beta[256] - 1.2007261917959885e-04 beta[257]
   + 2.4578636332591445e-04 beta[258] + 1.8481722546413902e-04 beta[259]
   - 6.38285e-05 beta[260] - 1.1889375945703398e-04 beta[261]
   - 1.06495e-05 beta[262] - 2.08385e-05 beta[263]
   + 0.0016554809466764 beta[264] + 1.0552126698077105e-04 beta[265]
   - 8.4997025986031721e-04 beta[266] - 2.0060538474949558e-04 beta[267]
   + 6.144147736262493e-04 beta[268] + 0.000241721 beta[269]
   - 5.1813724457755255e-04 beta[270] - 3.0223032165897079e-04 beta[271]
   - 7.0032575529538604e-04 beta[272] + 1.35094e-05 beta[273]
   + 0.000410315 beta[274] + 3.86619e-05 beta[275]
   - 3.5029487600306438e-04 beta[276] - 9.45791e-05 beta[277]
   + 3.4253338884790164e-04 beta[278] + 0.000209825 beta[279]
   - 0.00113151416618224 beta[280] - 0.000132303 beta[281]
   + 0.00051132 beta[282] + 1.5630521782504389e-04 beta[283]
   - 0.000333048 beta[284] - 1.625216400791346e-04 beta[285]
   + 0.00021363 beta[286] + 1.107615519714371e-04 beta[287]
   + 0.0570158454763971 beta[288] + 6.8067837228926787e-04 beta[289]
   + 0.00997484725313472 beta[290] + 8.88976e-09 beta[291]
   + weighted_residual[11] = 0.0652133222435025
 R602: 0.0420718751251958 beta[0] - 0.0045957282953249 beta[1]
   - 0.00363740549570787 beta[2] - 0.00174279046155568 beta[3]
   - 8.0557752666797467e-04 beta[4] - 3.908694344613468e-04 beta[5]
   - 2.0476636815206187e-04 beta[6] - 1.1636882787745965e-04 beta[7]
   + 0.0281686114340684 beta[8] + 0.0134494025497539 beta[9]
   + 0.00498364562216627 beta[10] + 0.00192111497995851 beta[11]
   + 8.0228472951750262e-04 beta[12] + 0.000368557 beta[13]
   + 1.8685959909816601e-04 beta[14] + 0.000103869 beta[15]
   - 0.0891751793934958 beta[16] - 0.0200543373924738 beta[17]
   - 0.0054978389422727 beta[18] - 0.0017491313611957 beta[19]
   - 6.4038720018701493e-04 beta[20] - 2.6887219831164805e-04 beta[21]
   - 1.2816780022313501e-04 beta[22] - 6.82199e-05 beta[23]
   + 0.0983308167771314 beta[24] + 0.017370763573036 beta[25]
   + 0.00375863295110178 beta[26] + 9.1272869538350481e-04 beta[27]
   + 2.4492929805426547e-04 beta[28] + 7.2755e-05 beta[29]
   + 2.40085e-05 beta[30] + 8.82372e-06 beta[31]
   - 0.0771034230265695 beta[32] - 0.00901929 beta[33] - 0.0007944 beta[34]
   + 1.9939970079643407e-04 beta[35] + 0.000213105 beta[36]
   + 1.3635622440059695e-04 beta[37] + 8.1337e-05 beta[38]
   + 4.90698e-05 beta[39] + 0.0454262031661285 beta[40]
   + 0.00105434916523376 beta[41] - 0.00149369144143491 beta[42]
   - 0.000919189 beta[43] - 4.6435439718559669e-04 beta[44]
   - 2.3486760639633382e-04 beta[45] - 1.2478742262159864e-04 beta[46]
   - 7.04531e-05 beta[47] - 0.013588518642314 beta[48]
   + 0.00373949850313786 beta[49] + 0.00226620521049919 beta[50]
   + 9.7724839297452923e-04 beta[51] + 4.122683057206403e-04 beta[52]
   + 0.000183196 beta[53] + 8.78994e-05 beta[54] + 4.57833e-05 beta[55]
   + 0.00191079560362885 beta[56] - 0.00397234 beta[57]
   - 0.00165298327431586 beta[58] - 5.5055316965861253e-04 beta[59]
   - 1.7067765990589237e-04 beta[60] - 4.90402e-05 beta[61]
   - 1.12903e-05 beta[62] - 1.84335e-07 beta[63]
   - 0.0130595153830415 beta[64] + 0.000164877 beta[65]
   + 0.000179274 beta[66] - 6.11728e-05 beta[67] - 9.90136e-05 beta[68]
   - 7.80073e-05 beta[69] - 5.28391e-05 beta[70] - 3.44308e-05 beta[71]
   + 0.0251559210301661 beta[72] + 0.0038332444677679 beta[73]
   + 0.0011760263886997 beta[74] + 5.3915047850854514e-04 beta[75]
   + 0.000274419 beta[76] + 0.000144507 beta[77] + 7.85149e-05 beta[78]
   + 4.42543e-05 beta[79] - 0.02118757189953 beta[80]
   - 0.00423610915598346 beta[81] - 0.00142860829066817 beta[82]
   - 6.0473037527518359e-04 beta[83] - 2.7342588357234581e-04 beta[84]
   - 0.000127776 beta[85] - 6.1759e-05 beta[86] - 3.10061e-05 beta[87]
   - 0.00213483280477839 beta[88] + 4.8565375206310364e-04 beta[89]
   + 0.000454682 beta[90] + 2.4199911272638632e-04 beta[91]
   + 1.0481420115565329e-04 beta[92] + 4.01864e-05 beta[93]
   + 1.3423e-05 beta[94] + 3.18585e-06 beta[95]
   + 0.00628817583131219 beta[96] + 0.00178162646599403 beta[97]
   + 5.7877726109780054e-04 beta[98] + 1.9029968841110872e-04 beta[99]
   + 5.39262e-05 beta[100] + 5.37971e-06 beta[101] - 1.11234e-05 beta[102]
   - 1.57966e-05 beta[103] - 0.00100483741616053 beta[104]
   - 2.2143623180927743e-04 beta[105] - 2.96797e-06 beta[106]
   + 5.39388e-05 beta[107] + 6.07338e-05 beta[108] + 5.34405e-05 beta[109]
   + 4.37689e-05 beta[110] + 3.51474e-05 beta[111]
   - 0.00235202127396284 beta[112] - 9.9643110133347751e-04 beta[113]
   - 4.9312349047440029e-04 beta[114] - 2.7338631021608131e-04 beta[115]
   - 1.6473760728412024e-04 beta[116] - 0.000106138 beta[117]
   - 7.22123e-05 beta[118] - 5.13606e-05 beta[119]
   + 0.00125407015289273 beta[120] + 6.9234127115497832e-04 beta[121]
   + 3.6163476708314527e-04 beta[122] + 1.9505155398593949e-04 beta[123]
   + 1.1097027794921066e-04 beta[124] + 6.70549e-05 beta[125]
   + 4.29823e-05 beta[126] + 2.90534e-05 beta[127]
   - 1.8287263034111876e-04 beta[128] + 7.68468e-05 beta[129]
   + 8.349e-05 beta[130] + 6.97272e-05 beta[131] + 5.51905e-05 beta[132]
   + 4.29949e-05 beta[133] + 3.34265e-05 beta[134] + 2.61219e-05 beta[135]
   + 1.9568234955099877e-04 beta[136] - 2.7037560570024045e-04 beta[137]
   - 2.5272737471878189e-04 beta[138] - 1.8901840321067012e-04 beta[139]
   - 1.3664588226294032e-04 beta[140] - 9.9523e-05 beta[141]
   - 7.3863e-05 beta[142] - 5.59884e-05 beta[143]
   + 8.0873334709104575e-04 beta[144] + 3.3441129731175324e-04 beta[145]
   + 0.000197151 beta[146] + 1.2803125301545914e-04 beta[147]
   + 8.66152e-05 beta[148] + 6.0535e-05 beta[149] + 4.36585e-05 beta[150]
   + 3.24398e-05 beta[151] - 0.00111553983985561 beta[152]
   - 4.0134630864825828e-04 beta[153] - 1.5478269540313775e-04 beta[154]
   - 6.1369e-05 beta[155] - 2.288e-05 beta[156] - 6.17976e-06 beta[157]
   + 1.14493e-06 beta[158] + 4.2097e-06 beta[159] - 3.88653e-05 beta[160]
   + 6.23979e-05 beta[161] + 2.48285e-05 beta[162] - 3.34432e-06 beta[163]
   - 1.58451e-05 beta[164] - 1.98069e-05 beta[165] - 1.98981e-05 beta[166]
   - 1.84274e-05 beta[167] + 6.1597016738777289e-04 beta[168]
   + 3.3433186628692674e-04 beta[169] + 1.7603244665386806e-04 beta[170]
   + 1.0138554594698617e-04 beta[171] + 6.3582e-05 beta[172]
   + 4.25212e-05 beta[173] + 2.98066e-05 beta[174] + 2.16495e-05 beta[175]
   - 7.5664228407435743e-04 beta[176] - 3.774868709167336e-04 beta[177]
   - 2.2060778330496993e-04 beta[178] - 1.3327826979291568e-04 beta[179]
   - 8.30667e-05 beta[180] - 5.31942e-05 beta[181] - 3.48072e-05 beta[182]
   - 2.31507e-05 beta[183] + 5.7489657032050413e-04 beta[184]
   + 1.9936484519030224e-04 beta[185] + 9.43192e-05 beta[186]
   + 5.41055e-05 beta[187] + 3.38153e-05 beta[188] + 2.18976e-05 beta[189]
   + 1.43883e-05 beta[190] + 9.49885e-06 beta[191]
   + 0.00405186617889774 beta[192] - 0.00107508878422918 beta[193]
   - 0.00370435289612191 beta[194] - 0.000287132 beta[195]
   + 0.00356778156576738 beta[196] + 0.00208197535059204 beta[197]
   - 0.00216443230288663 beta[198] - 0.00288256400582749 beta[199]
   - 5.3413422697446626e-04 beta[200] + 8.8529735939455649e-04 beta[201]
   + 0.00146336694056186 beta[202] + 6.24073e-05 beta[203]
   - 0.00155077849123741 beta[204] - 0.00117306795400458 beta[205]
   + 6.8339381204135746e-04 beta[206] + 0.00150409361293727 beta[207]
   - 0.00190559179677726 beta[208] - 5.4074425315938886e-04 beta[209]
   + 4.3468428129765657e-04 beta[210] + 0.000159287 beta[211]
   - 2.9731445106651191e-04 beta[212] + 3.99825e-05 beta[213]
   + 5.0894641513031503e-04 beta[214] + 1.7229618889449415e-04 beta[215]
   + 0.00141595322189216 beta[216] + 1.2330379186623855e-04 beta[217]
   - 7.4056117717810805e-04 beta[218] - 1.5469642963403718e-04 beta[219]
   + 8.0507262585695967e-04 beta[220] + 5.7744221015943408e-04 beta[221]
   - 5.9662132080845855e-04 beta[222] - 0.00102260131298466 beta[223]
   - 5.0273559312595929e-04 beta[224] + 1.8951011273260477e-04 beta[225]
   + 0.000546822 beta[226] - 4.02813e-06 beta[227]
   - 7.2462846069867339e-04 beta[228] - 5.6209926379931273e-04 beta[229]
   + 3.6993015751413171e-04 beta[230] + 8.8438768469744939e-04 beta[231]
   - 3.2352077998653764e-04 beta[232] - 3.0403625770155946e-04 beta[233]
   - 1.3195081459802096e-04 beta[234] + 0.000160999 beta[235]
   + 0.00032158 beta[236] + 1.9611421351129388e-04 beta[237]
   - 6.94975e-05 beta[238] - 0.000232558 beta[239]
   + 0.00112386595492194 beta[240] + 0.000263327 beta[241]
   - 4.1063458755328229e-04 beta[242] - 0.000239226 beta[243]
   + 0.000240459 beta[244] + 1.9793065622264469e-04 beta[245]
   - 2.8120625502596296e-04 beta[246] - 4.0636953229710701e-04 beta[247]
   - 0.00107617615943911 beta[248] - 1.1539672794566514e-04 beta[249]
   + 5.3903749653827883e-04 beta[250] + 1.6063723754991159e-04 beta[251]
   - 4.7542080728452135e-04 beta[252] - 3.2407271831584096e-04 beta[253]
   + 4.0047653760613147e-04 beta[254] + 6.1700151336884553e-04 beta[255]
   + 4.1638988897710902e-04 beta[256] - 6.15553e-05 beta[257]
   - 0.000288273 beta[258] + 4.09854e-05 beta[259] + 0.000355607 beta[260]
   + 1.3757074054011504e-04 beta[261] - 2.9941444339617689e-04 beta[262]
   - 3.5014123045736472e-04 beta[263] + 0.000659866 beta[264]
   + 1.5670161212789384e-04 beta[265] - 0.000262304 beta[266]
   - 2.0250926969135545e-04 beta[267] + 7.91657e-05 beta[268]
   + 1.3303317704265919e-04 beta[269] - 3.95514e-05 beta[270]
   - 8.22199e-05 beta[271] - 0.00114553085473659 beta[272]
   - 0.000113093 beta[273] + 5.7166261907470677e-04 beta[274]
   + 1.913357799062183e-04 beta[275] - 3.9466133322763687e-04 beta[276]
   - 2.3486137751098173e-04 beta[277] + 3.0923969281209388e-04 beta[278]
   + 3.2109754349170634e-04 beta[279] + 4.7030415413995693e-04 beta[280]
   - 1.31227e-05 beta[281] - 0.000293724 beta[282] - 3.92314e-05 beta[283]
   + 0.000267849 beta[284] + 1.2161649658237709e-04 beta[285]
   - 2.4172016277426226e-04 beta[286] - 2.5497082177251769e-04 beta[287]
   + 0.0392479270918885 beta[288] + 6.8215475354088196e-04 beta[289]
   + 0.00674770796110305 beta[290] - 2.59383e-06 beta[291]
   + weighted_residual[12] = 0.0451783019337006
 R603: - 0.0448156566466839 beta[0] + 0.0138332013000031 beta[1]
   + 0.0116881970569989 beta[2] + 0.00714841626618411 beta[3]
   + 0.00424529046486119 beta[4] + 0.00259235237260766 beta[5]
   + 0.00165316039861689 beta[6] + 0.00110236131727644 beta[7]
   - 0.1077167402685063 beta[8] - 0.0405602537253046 beta[9]
   - 0.0176977315904865 beta[10] - 0.00865348254050226 beta[11]
   - 0.00463135169230378 beta[12] - 0.0026777910298358 beta[13]
   - 0.00165469932510973 beta[14] - 0.00108162015607835 beta[15]
   + 0.2147583961225242 beta[16] + 0.0566205894347339 beta[17]
   + 0.0199474503976505 beta[18] + 0.00851992718723526 beta[19]
   + 0.00419738414307689 beta[20] + 0.00230877606324284 beta[21]
   + 0.00138348736464969 beta[22] + 8.8640639735826214e-04 beta[23]
   - 0.1978264910251409 beta[24] - 0.043924618482735 beta[25]
   - 0.0134807783687672 beta[26] - 0.00520019930341 beta[27]
   - 0.002390913963802 beta[28] - 0.00125912491975744 beta[29]
   - 0.000734797 beta[30] - 0.000463235 beta[31]
   + 0.1095769006108963 beta[32] + 0.0163630185843803 beta[33]
   + 0.00301496901344225 beta[34] + 6.1107978929015173e-04 beta[35]
   + 1.132952096374458e-04 beta[36] + 5.11071e-06 beta[37]
   - 1.56143e-05 beta[38] - 1.6325e-05 beta[39]
   + 0.0020469956206427 beta[40] + 0.00902563469482998 beta[41]
   + 0.00509290063747772 beta[42] + 0.00263673663335738 beta[43]
   + 0.00142213486076485 beta[44] + 8.1878059690123424e-04 beta[45]
   + 0.000502114 beta[46] + 3.2505967428430216e-04 beta[47]
   - 0.0788816250670473 beta[48] - 0.0218570963642461 beta[49]
   - 0.00807466580320758 beta[50] - 0.00358017591094441 beta[51]
   - 0.00180479139231107 beta[52] - 0.001005457981717 beta[53]
   - 6.0585852559154286e-04 beta[54] - 3.8822636974546708e-04 beta[55]
   + 0.0716575922202379 beta[56] + 0.0179609839869996 beta[57]
   + 0.00632690448189126 beta[58] + 0.00275219269515664 beta[59]
   + 0.00137908089680522 beta[60] + 7.6556237400304968e-04 beta[61]
   + 4.5907779105661844e-04 beta[62] + 2.9227378748783304e-04 beta[63]
   + 0.000853824 beta[64] - 0.0046149726078586 beta[65]
   - 0.0026434396825753 beta[66] - 0.00136529810010824 beta[67]
   - 7.3845868081357446e-04 beta[68] - 4.2373131311669392e-04 beta[69]
   - 2.5657371062467587e-04 beta[70] - 1.6280557906747713e-04 beta[71]
   - 0.0606202409193283 beta[72] - 0.0042136581381364 beta[73]
   + 0.000490529 beta[74] + 5.7060877972596089e-04 beta[75]
   + 3.5537781845163072e-04 beta[76] + 2.0864747055553853e-04 beta[77]
   + 1.2437076141303663e-04 beta[78] + 7.65218e-05 beta[79]
   + 0.0443611074324547 beta[80] + 0.00119231837013846 beta[81]
   - 0.00118261809086284 beta[82] - 6.9575651960428414e-04 beta[83]
   - 3.3841568677582957e-04 beta[84] - 1.6497112237003484e-04 beta[85]
   - 8.36083e-05 beta[86] - 4.4329e-05 beta[87]
   + 0.019389422699171 beta[88] + 0.00869513521436703 beta[89]
   + 0.00313897944789925 beta[90] + 0.00113049151353912 beta[91]
   + 4.2908549482271574e-04 beta[92] + 1.7255914300498426e-04 beta[93]
   + 7.26564e-05 beta[94] + 3.14073e-05 beta[95]
   - 0.0233736554365823 beta[96] - 0.00903492597805197 beta[97]
   - 0.00419852366057791 beta[98] - 0.00216823064410918 beta[99]
   - 0.00120884795037788 beta[100] - 7.1823073734696868e-04 beta[101]
   - 0.000450696 beta[102] - 0.000296306 beta[103]
   - 9.5602712692805273e-04 beta[104] - 2.2910627359874481e-04 beta[105]
   - 2.5177568577034051e-04 beta[106] - 0.000269278 beta[107]
   - 2.5690969424773367e-04 beta[108] - 2.3080418611406934e-04 beta[109]
   - 2.0178783263153131e-04 beta[110] - 1.746806341983557e-04 beta[111]
   + 0.00823698289417643 beta[112] + 0.00449430858974379 beta[113]
   + 0.00264213614530117 beta[114] + 0.00167832072005533 beta[115]
   + 0.00113776882995057 beta[116] + 8.1398554531093999e-04 beta[117]
   + 6.0841814369641252e-04 beta[118] + 4.7111249736787533e-04 beta[119]
   - 0.00273343543791899 beta[120] - 0.00195402106033746 beta[121]
   - 0.00128397083125135 beta[122] - 8.6387118626227199e-04 beta[123]
   - 6.0529071471658667e-04 beta[124] - 4.425586398836411e-04 beta[125]
   - 3.3631126179427875e-04 beta[126] - 0.000264069 beta[127]
   + 0.00206842755146748 beta[128] - 7.84976e-05 beta[129]
   - 0.000319274 beta[130] - 2.8586130622282991e-04 beta[131]
   - 2.2324656996838556e-04 beta[132] - 0.000170788 beta[133]
   - 0.000131618 beta[134] - 1.0296827893312729e-04 beta[135]
   + 0.00121854837538025 beta[136] + 0.00103224621743388 beta[137]
   + 8.3473544702996998e-04 beta[138] + 6.3984270490457964e-04 beta[139]
   + 4.8861557509945869e-04 beta[140] + 3.7886466173100492e-04 beta[141]
   + 0.000299861 beta[142] + 2.4223542606591406e-04 beta[143]
   - 0.00447812200404376 beta[144] - 0.00181516263458829 beta[145]
   - 0.000916829 beta[146] - 5.5116258202111328e-04 beta[147]
   - 3.7144553896229925e-04 beta[148] - 2.7023435342982512e-04 beta[149]
   - 2.0738358061114155e-04 beta[150] - 1.654045918544157e-04 beta[151]
   + 0.00243090894993655 beta[152] + 0.00105060400160093 beta[153]
   + 4.8627841416864516e-04 beta[154] + 2.553742905539637e-04 beta[155]
   + 1.5009870449551988e-04 beta[156] + 9.6869e-05 beta[157]
   + 6.73479e-05 beta[158] + 4.96119e-05 beta[159]
   + 1.2599828026097726e-04 beta[160] + 3.8837823212653722e-04 beta[161]
   + 0.000233125 beta[162] + 1.3613566236218928e-04 beta[163]
   + 8.33911e-05 beta[164] + 5.44166e-05 beta[165] + 3.79464e-05 beta[166]
   + 2.81746e-05 beta[167] - 0.00253615292895697 beta[168]
   - 0.00101767518920466 beta[169] - 5.1549234109254103e-04 beta[170]
   - 2.9093151367757468e-04 beta[171] - 1.760981457600729e-04 beta[172]
   - 0.00011302 beta[173] - 7.64446e-05 beta[174] - 5.41995e-05 beta[175]
   + 0.00251316204326221 beta[176] + 6.93909354173246e-04 beta[177]
   + 0.000254816 beta[178] + 1.1972043422161901e-04 beta[179]
   + 6.82097e-05 beta[180] + 4.44444e-05 beta[181] + 3.15717e-05 beta[182]
   + 2.36789e-05 beta[183] + 0.000676342 beta[184] + 0.000254476 beta[185]
   + 1.8829446460306786e-04 beta[186] + 1.3297883684978322e-04 beta[187]
   + 8.91826e-05 beta[188] + 5.87199e-05 beta[189] + 3.86104e-05 beta[190]
   + 2.55409e-05 beta[191] - 0.012427472124579 beta[192]
   + 0.00254910046008527 beta[193] + 0.0126080883248394 beta[194]
   + 0.00564682130928165 beta[195] - 0.00731680909692034 beta[196]
   - 0.00937787303462029 beta[197] - 3.4330461361794048e-04 beta[198]
   + 0.00637543872115316 beta[199] + 0.00612927893370446 beta[200]
   - 0.00238782883710397 beta[201] - 0.00831445139626297 beta[202]
   - 0.00428473694981485 beta[203] + 0.00411792835250039 beta[204]
   + 0.00661866295287027 beta[205] + 0.00150943466395493 beta[206]
   - 0.0037281742043974 beta[207] + 0.00122642486763739 beta[208]
   + 0.00216016752985884 beta[209] + 0.00288606940594049 beta[210]
   + 0.00205958920731553 beta[211] - 0.000319807 beta[212]
   - 0.00236931374710516 beta[213] - 0.00213198377443927 beta[214]
   - 1.21276e-05 beta[215] - 0.00486022741891348 beta[216]
   - 0.00172264871162879 beta[217] + 6.8153788430798271e-04 beta[218]
   - 5.88353e-05 beta[219] - 0.00181471107473886 beta[220]
   - 0.00127088186008463 beta[221] + 0.00130890415940917 beta[222]
   + 0.00260197721295818 beta[223] + 0.00447584360366684 beta[224]
   + 9.5234476273839332e-04 beta[225] - 0.00187321941552003 beta[226]
   - 8.6594383286710177e-04 beta[227] + 0.00215324782904556 beta[228]
   + 0.00287147647358026 beta[229] + 6.14169e-05 beta[230]
   - 0.002911038935284 beta[231] - 0.00301648210465212 beta[232]
   - 1.1188188007775622e-04 beta[233] + 0.00199830208446965 beta[234]
   + 8.2624036150762527e-04 beta[235] - 0.00184958663359017 beta[236]
   - 0.00261150232472912 beta[237] - 6.843366697692493e-04 beta[238]
   + 0.00163150335322644 beta[239] + 0.00108171630238937 beta[240]
   - 4.8273088651532172e-04 beta[241] - 0.00134897172264744 beta[242]
   - 0.00035572 beta[243] + 0.0011026115967863 beta[244]
   + 0.00141252 beta[245] + 7.5864545671322113e-04 beta[246]
   + 3.79215e-05 beta[247] + 0.002099551085423 beta[248]
   + 7.7608921181330994e-04 beta[249] - 3.1601039463765359e-04 beta[250]
   - 1.9619531544783235e-04 beta[251] + 3.2506857633417296e-04 beta[252]
   - 1.80406e-05 beta[253] - 0.00106408816484439 beta[254]
   - 0.0014095371078279 beta[255] - 0.00387902638257592 beta[256]
   - 7.3920120058892187e-04 beta[257] + 0.00146526847324545 beta[258]
   + 4.7054528994595511e-04 beta[259] - 0.00131970565412518 beta[260]
   - 8.7505125235637967e-04 beta[261] + 0.0011482483308386 beta[262]
   + 0.00195042775639017 beta[263] + 0.00199484416865624 beta[264]
   + 3.6131829512118293e-04 beta[265] - 7.9556566692243799e-04 beta[266]
   - 0.000211567 beta[267] + 0.0009208 beta[268]
   + 8.2474063178107702e-04 beta[269] - 4.5063921669756096e-04 beta[270]
   - 0.00137848506658565 beta[271] + 6.9943261743970228e-04 beta[272]
   + 3.59884e-05 beta[273] - 3.8576077716322258e-04 beta[274]
   - 2.1164527839827912e-04 beta[275] - 6.54319e-05 beta[276]
   - 0.000296894 beta[277] - 0.00030793 beta[278]
   + 3.5813528594828478e-04 beta[279] - 5.762787413831407e-04 beta[280]
   - 0.000103457 beta[281] + 3.0684481734390747e-04 beta[282]
   + 2.7575960157420423e-04 beta[283] + 3.52144e-05 beta[284]
   + 3.83703e-05 beta[285] + 2.6709230409694784e-04 beta[286]
   + 2.1177617996382059e-04 beta[287] - 0.0226220304974003 beta[288]
   - 0.00574275708914975 beta[289] - 0.0421736056107895 beta[290]
   + 2.95978e-07 beta[291] + weighted_residual[13] = -0.0585380816632672
 R604: 0.00404734030029669 beta[0] + 0.00166606988259081 beta[1]
   + 0.00253942830139259 beta[2] + 0.00225704785404438 beta[3]
   + 0.00174803413706879 beta[4] + 0.00129770581399032 beta[5]
   + 9.554957569886727e-04 beta[6] + 0.000708091 beta[7]
   - 0.0213757691396352 beta[8] - 0.00912635941926418 beta[9]
   - 0.0052607823853107 beta[10] - 0.0032620457725639 beta[11]
   - 0.00211207603444364 beta[12] - 0.00141795092462614 beta[13]
   - 9.8368648240519641e-04 beta[14] - 7.0316439133306496e-04 beta[15]
   + 0.0254458950892047 beta[16] + 0.0120600259872297 beta[17]
   + 0.00608787603338528 beta[18] + 0.00335209296779339 beta[19]
   + 0.0019873520051534 beta[20] + 0.00125548534128182 beta[21]
   + 8.3716438050554325e-04 beta[22] + 5.8408787636522914e-04 beta[23]
   - 0.0168790382826147 beta[24] - 0.00781384752065367 beta[25]
   - 0.00379334118276935 beta[26] - 0.0020226789730456 beta[27]
   - 0.00117659099429785 beta[28] - 7.3828830549360982e-04 beta[29]
   - 4.9345480545669629e-04 beta[30] - 3.4706633212303446e-04 beta[31]
   + 0.00379590177505936 beta[32] + 0.002265572008169 beta[33]
   + 0.00113567284292325 beta[34] + 6.171032440148678e-04 beta[35]
   + 3.7493961845845564e-04 beta[36] + 2.497221420157097e-04 beta[37]
   + 1.7751747785489804e-04 beta[38] + 1.3195578695953728e-04 beta[39]
   + 0.00512142182983745 beta[40] + 1.9887727993925155e-04 beta[41]
   - 1.6309650673756293e-04 beta[42] - 1.3670159251397241e-04 beta[43]
   - 9.84679e-05 beta[44] - 7.24159e-05 beta[45] - 5.46972e-05 beta[46]
   - 4.21061e-05 beta[47] - 6.7372655160389974e-04 beta[48]
   + 0.00141540679430491 beta[49] + 8.3771157249771556e-04 beta[50]
   + 4.3892150274988263e-04 beta[51] + 2.3713158865645566e-04 beta[52]
   + 1.3525313310701602e-04 beta[53] + 8.13052e-05 beta[54]
   + 5.11582e-05 beta[55] - 0.0064465437255114 beta[56]
   - 0.00378486494086435 beta[57] - 0.00169997686968715 beta[58]
   - 7.9132349949671311e-04 beta[59] - 3.9702841519731989e-04 beta[60]
   - 2.1453432132507029e-04 beta[61] - 1.2368111381800621e-04 beta[62]
   - 7.52916e-05 beta[63] + 0.00514677030030699 beta[64]
   + 0.00307554159714801 beta[65] + 0.00132273977942367 beta[66]
   + 5.9083828691699038e-04 beta[67] + 2.8999663983892451e-04 beta[68]
   + 1.5657156811818714e-04 beta[69] + 9.17175e-05 beta[70]
   + 5.73538e-05 beta[71] + 0.00447131593958384 beta[72]
   + 0.000440932 beta[73] + 1.5454168083791988e-04 beta[74]
   + 9.26463e-05 beta[75] + 5.26052e-05 beta[76] + 2.75872e-05 beta[77]
   + 1.35191e-05 beta[78] + 6.05397e-06 beta[79]
   - 0.013343675180681 beta[80] - 0.00352035712952727 beta[81]
   - 0.00142231836969426 beta[82] - 0.000687477 beta[83]
   - 3.6373584862794506e-04 beta[84] - 2.0557653647076274e-04 beta[85]
   - 1.2291759274409377e-04 beta[86] - 7.71948e-05 beta[87]
   + 0.0129520227069811 beta[88] + 0.00364763580272922 beta[89]
   + 0.00155014607320984 beta[90] + 7.893205845704175e-04 beta[91]
   + 4.4430337305468654e-04 beta[92] + 2.691276771541165e-04 beta[93]
   + 1.7279828364796478e-04 beta[94] + 1.1626917204614133e-04 beta[95]
   - 0.00859628277153288 beta[96] - 0.00454852950920762 beta[97]
   - 0.00267540052628215 beta[98] - 0.00166375453129128 beta[99]
   - 0.00107244366782657 beta[100] - 7.1015255045981252e-04 beta[101]
   - 0.000480919 beta[102] - 3.322653545841415e-04 beta[103]
   - 0.00238779781623927 beta[104] - 8.6276188758563311e-04 beta[105]
   - 4.8557867305493212e-04 beta[106] - 0.000335465 beta[107]
   - 2.5742776656814562e-04 beta[108] - 2.0885759949747527e-04 beta[109]
   - 1.7478588462095429e-04 beta[110] - 1.4900942345098952e-04 beta[111]
   + 0.00190766639964011 beta[112] + 0.00176089170026281 beta[113]
   + 0.0012946366793937 beta[114] + 9.4569271756117686e-04 beta[115]
   + 7.025253378137845e-04 beta[116] + 0.000533209 beta[117]
   + 4.1374241583794045e-04 beta[118] + 3.2797873615414728e-04 beta[119]
   - 0.000227507 beta[120] - 1.4196415486529408e-04 beta[121]
   - 1.3262256196599318e-04 beta[122] - 1.183823322128522e-04 beta[123]
   - 1.0227559287624437e-04 beta[124] - 8.7559e-05 beta[125]
   - 7.52635e-05 beta[126] - 6.53657e-05 beta[127] + 6.22566e-05 beta[128]
   - 3.3097748501719409e-04 beta[129] - 3.6170641975116909e-04 beta[130]
   - 3.163864725285214e-04 beta[131] - 2.599034724236716e-04 beta[132]
   - 2.0928453197694588e-04 beta[133] - 1.6793874091721703e-04 beta[134]
   - 1.3528528666295863e-04 beta[135] + 0.00162039281221971 beta[136]
   + 0.000723993 beta[137] + 4.2970935002120301e-04 beta[138]
   + 0.000293727 beta[139] + 2.1704813515556815e-04 beta[140]
   + 1.6822083607607308e-04 beta[141] + 1.3469145274177537e-04 beta[142]
   + 1.10507851028463e-04 beta[143] - 3.53424e-05 beta[144]
   - 2.087483770404562e-04 beta[145] - 1.3942964659581112e-04 beta[146]
   - 8.48918e-05 beta[147] - 5.35887e-05 beta[148] - 3.66516e-05 beta[149]
   - 2.75407e-05 beta[150] - 2.2545e-05 beta[151]
   - 6.3108373205677474e-04 beta[152] - 5.017704245787179e-04 beta[153]
   - 3.1520525019543294e-04 beta[154] - 0.000202065 beta[155]
   - 0.000134579 beta[156] - 9.2746e-05 beta[157] - 6.57089e-05 beta[158]
   - 4.7589e-05 beta[159] + 7.2923165642541185e-04 beta[160]
   + 4.4265254138361321e-04 beta[161] + 0.000309562 beta[162]
   + 0.000218705 beta[163] + 1.5673276014824578e-04 beta[164]
   + 1.145558210784614e-04 beta[165] + 8.55765e-05 beta[166]
   + 6.53345e-05 beta[167] - 2.2352239065406119e-04 beta[168]
   - 4.87044e-05 beta[169] - 1.10882e-05 beta[170] - 8.78526e-06 beta[171]
   - 1.24629e-05 beta[172] - 1.56884e-05 beta[173] - 1.75004e-05 beta[174]
   - 1.81305e-05 beta[175] - 8.9037989862111974e-04 beta[176]
   - 0.000409915 beta[177] - 2.4166380119722947e-04 beta[178]
   - 1.568508257640067e-04 beta[179] - 1.0587978635739936e-04 beta[180]
   - 7.27549e-05 beta[181] - 5.04097e-05 beta[182] - 3.50105e-05 beta[183]
   + 4.0122015377832345e-04 beta[184] + 0.000348706 beta[185]
   + 0.000227539 beta[186] + 1.5090563809356427e-04 beta[187]
   + 1.049067979507438e-04 beta[188] + 7.62431e-05 beta[189]
   + 5.74327e-05 beta[190] + 4.4471e-05 beta[191]
   - 0.00389934518277807 beta[192] + 1.1853544345636881e-04 beta[193]
   + 0.00403245159046039 beta[194] + 0.00404155581485998 beta[195]
   + 0.000532875 beta[196] - 0.00278529 beta[197]
   - 0.00306644626026147 beta[198] - 8.9437639261503196e-04 beta[199]
   + 0.0035294543031706 beta[200] - 2.504634432411986e-04 beta[201]
   - 0.00370781501915484 beta[202] - 0.00346597328355703 beta[203]
   - 3.6502438544291178e-04 beta[204] + 0.00224835096961832 beta[205]
   + 0.00242090277245644 beta[206] + 8.80582392248148e-04 beta[207]
   - 0.00197438800157162 beta[208] + 4.9218335791390553e-04 beta[209]
   + 0.00267866387831883 beta[210] + 0.00243065637918789 beta[211]
   + 4.0423227552011429e-04 beta[212] - 0.00129911139914403 beta[213]
   - 0.00159063488067681 beta[214] - 8.6493061175183753e-04 beta[215]
   - 1.1351678293202329e-04 beta[216] - 0.000728992 beta[217]
   - 0.00130402066866104 beta[218] - 0.00123935836652833 beta[219]
   - 5.5330012102408599e-04 beta[220] + 2.6504868409759768e-04 beta[221]
   + 7.5277645356701915e-04 beta[222] + 7.4236276674550519e-04 beta[223]
   + 0.00134795070634845 beta[224] + 8.1620132543922289e-04 beta[225]
   + 3.0605913127025505e-04 beta[226] + 2.4676363273705876e-04 beta[227]
   + 0.000470027 beta[228] + 4.9245063437423746e-04 beta[229]
   + 1.1237055092066926e-04 beta[230] - 4.036623930408265e-04 beta[231]
   - 0.00164267335794559 beta[232] - 0.000720434 beta[233]
   + 2.3523170451849673e-04 beta[234] + 3.8400927899185147e-04 beta[235]
   - 2.3876638043856236e-04 beta[236] - 8.5438128807393762e-04 beta[237]
   - 0.000778448 beta[238] - 4.73251e-05 beta[239]
   + 0.00163283901839763 beta[240] + 0.000517545 beta[241]
   - 5.9145641663635733e-04 beta[242] - 6.9255637384725024e-04 beta[243]
   + 1.1511581296384072e-04 beta[244] + 9.2805516598522687e-04 beta[245]
   + 0.00101957386974744 beta[246] + 3.7954669838320627e-04 beta[247]
   - 0.0014570637873222 beta[248] - 2.7854989519931025e-04 beta[249]
   + 7.9488135417968601e-04 beta[250] + 7.5322261226693258e-04 beta[251]
   - 1.0780680756666113e-04 beta[252] - 8.2554682518264826e-04 beta[253]
   - 9.0190425706228989e-04 beta[254] - 4.9119447094478417e-04 beta[255]
   + 9.5857338024916776e-04 beta[256] + 3.14653e-05 beta[257]
   - 7.5037865491405095e-04 beta[258] - 6.1218810906079691e-04 beta[259]
   + 9.68352e-05 beta[260] + 5.8960825839621321e-04 beta[261]
   + 0.000622208 beta[262] + 4.4991251210851061e-04 beta[263]
   - 0.000205305 beta[264] + 1.9356348254620276e-04 beta[265]
   + 4.8886946981947321e-04 beta[266] + 3.4302529964938913e-04 beta[267]
   - 3.6166e-05 beta[268] - 2.7318174882732306e-04 beta[269]
   - 3.1624159531669924e-04 beta[270] - 0.000348409 beta[271]
   - 4.9094818464197147e-04 beta[272] - 3.4956914453466184e-04 beta[273]
   - 0.000169302 beta[274] - 5.6495e-05 beta[275] - 3.3677e-05 beta[276]
   - 3.43969e-05 beta[277] + 3.94813e-05 beta[278]
   + 2.3091334024153313e-04 beta[279] + 8.8594878234271384e-04 beta[280]
   + 0.000404863 beta[281] - 7.46678e-05 beta[282]
   - 1.5523875779373372e-04 beta[283] + 7.75686e-05 beta[284]
   + 2.5941550277967882e-04 beta[285] + 1.7342286819381587e-04 beta[286]
   - 0.000120205 beta[287] + 0.00917241390034642 beta[288]
   - 0.00490158778968065 beta[289] - 0.0202565684354302 beta[290]
   + 2.56064e-07 beta[291] + weighted_residual[14] = -0.00859389399891641
 R605: - 0.0936400833353675 beta[0] - 0.00627033460747546 beta[1]
   + 0.00520288716552977 beta[2] + 0.00537069050537928 beta[3]
   + 0.00393057853599226 beta[4] + 0.00268230300162538 beta[5]
   + 0.00182133404661219 beta[6] + 0.00125884860111203 beta[7]
   - 0.00371812751447107 beta[8] - 0.015860773606196 beta[9]
   - 0.0103969131345358 beta[10] - 0.00624498200996233 beta[11]
   - 0.00378261695258854 beta[12] - 0.00236729938732763 beta[13]
   - 0.00154181155271027 beta[14] - 0.00104551676042727 beta[15]
   + 0.0784404679208462 beta[16] + 0.0309989432533795 beta[17]
   + 0.0126080874417939 beta[18] + 0.00566353700208204 beta[19]
   + 0.00285271443717906 beta[20] + 0.00159993722042882 beta[21]
   + 9.8372440783293133e-04 beta[22] + 6.5111562654976678e-04 beta[23]
   - 0.061665778111175 beta[24] - 0.01964004828729 beta[25]
   - 0.00639548457099949 beta[26] - 0.00223625670449086 beta[27]
   - 8.8749455053794169e-04 beta[28] - 4.2054447768812394e-04 beta[29]
   - 2.4171816110438616e-04 beta[30] - 1.6256488210521393e-04 beta[31]
   - 0.01437279110346 beta[32] - 0.00877925298269037 beta[33]
   - 0.00469384879442772 beta[34] - 0.00252196489839874 beta[35]
   - 0.00138441140691493 beta[36] - 7.8448626324330772e-04 beta[37]
   - 4.6174650972581594e-04 beta[38] - 2.827963931321111e-04 beta[39]
   + 0.1027691228213636 beta[40] + 0.0337222800068193 beta[41]
   + 0.0131300734697332 beta[42] + 0.00578189393058902 beta[43]
   + 0.00282481331462258 beta[44] + 0.00151511840825104 beta[45]
   + 8.8284885188821447e-04 beta[46] + 5.5209812206601691e-04 beta[47]
   - 0.1588521872603374 beta[48] - 0.0414908510883204 beta[49]
   - 0.0143659981036078 beta[50] - 0.00593240380321276 beta[51]
   - 0.00282510803254777 beta[52] - 0.00152051251385759 beta[53]
   - 0.000905284 beta[54] - 5.8338939021803976e-04 beta[55]
   + 0.1250702706209529 beta[56] + 0.0272128952850616 beta[57]
   + 0.00838833 beta[58] + 0.00331281595070486 beta[59]
   + 0.00161269617582591 beta[60] + 9.2439780167491046e-04 beta[61]
   + 5.931006499687077e-04 beta[62] + 4.0961069126489356e-04 beta[63]
   - 0.0035592336614942 beta[64] + 0.00292741862549204 beta[65]
   + 0.00145491129674339 beta[66] + 4.9091229530903572e-04 beta[67]
   + 7.14816e-05 beta[68] - 8.42875e-05 beta[69]
   - 1.2877362595773819e-04 beta[70] - 1.3040064215962921e-04 beta[71]
   - 0.112489402812336 beta[72] - 0.0305459883583271 beta[73]
   - 0.00972877984442744 beta[74] - 0.00351786854620764 beta[75]
   - 0.00141249268169404 beta[76] - 6.1650869771561595e-04 beta[77]
   - 2.8618467110728274e-04 beta[78] - 0.000137662 beta[79]
   + 0.1413959180066668 beta[80] + 0.0377065835458046 beta[81]
   + 0.0117352586242664 beta[82] + 0.00431405040780185 beta[83]
   + 0.00185866184296171 beta[84] + 9.189121768031146e-04 beta[85]
   + 0.000506741 beta[86] + 3.0316680300589063e-04 beta[87]
   - 0.0824284523463413 beta[88] - 0.0214699255783928 beta[89]
   - 0.00678112138436958 beta[90] - 0.00271078811724742 beta[91]
   - 0.00133554 beta[92] - 0.000765335 beta[93]
   - 4.8322658114168811e-04 beta[94] - 3.2450729317666825e-04 beta[95]
   - 0.0095517681617651 beta[96] - 0.00333996050985911 beta[97]
   - 0.00132683041950529 beta[98] - 0.000547348 beta[99]
   - 0.000214581 beta[100] - 6.4617e-05 beta[101] + 3.63061e-06 beta[102]
   + 3.334e-05 beta[103] + 0.00143694322749072 beta[104]
   + 3.9350737769480856e-04 beta[105] + 7.83699e-05 beta[106]
   - 2.95172e-05 beta[107] - 6.57157e-05 beta[108] - 7.42834e-05 beta[109]
   - 7.18223e-05 beta[110] - 6.52658e-05 beta[111]
   + 0.00364925304701845 beta[112] + 0.00153673700248802 beta[113]
   + 7.6718576965974781e-04 beta[114] + 4.2554269644749559e-04 beta[115]
   + 2.5485253391874452e-04 beta[116] + 1.6209419581835767e-04 beta[117]
   + 1.0859082913991051e-04 beta[118] + 7.62801e-05 beta[119]
   - 0.00168968056618333 beta[120] - 8.2049375540565572e-04 beta[121]
   - 0.000446538 beta[122] - 2.5534022728577191e-04 beta[123]
   - 1.5037344601899629e-04 beta[124] - 9.08163e-05 beta[125]
   - 5.64291e-05 beta[126] - 3.63115e-05 beta[127]
   - 7.6763259622221849e-04 beta[128] - 3.2689578140174594e-04 beta[129]
   - 1.663931069863376e-04 beta[130] - 9.80193e-05 beta[131]
   - 6.40412e-05 beta[132] - 4.45178e-05 beta[133] - 3.21365e-05 beta[134]
   - 2.38007e-05 beta[135] + 5.0646051063203343e-04 beta[136]
   + 4.7381585326649689e-04 beta[137] + 3.4765819297368069e-04 beta[138]
   + 2.4108850594230618e-04 beta[139] + 1.6527869404206225e-04 beta[140]
   + 1.1408340495648641e-04 beta[141] + 8.00798e-05 beta[142]
   + 5.74889e-05 beta[143] - 7.6155514091727451e-04 beta[144]
   - 5.083904558662967e-04 beta[145] - 3.3573465858489573e-04 beta[146]
   - 2.2128648602633954e-04 beta[147] - 0.000148236 beta[148]
   - 1.0203011200777893e-04 beta[149] - 7.24907e-05 beta[150]
   - 5.32173e-05 beta[151] + 0.00179016528520121 beta[152]
   + 6.9012859077184716e-04 beta[153] + 3.0753480943487198e-04 beta[154]
   + 1.532836155512936e-04 beta[155] + 8.56447e-05 beta[156]
   + 5.37193e-05 beta[157] + 3.7379e-05 beta[158] + 2.82209e-05 beta[159]
   - 6.1750578073337017e-04 beta[160] - 0.000177006 beta[161]
   - 3.91841e-05 beta[162] + 8.85886e-08 beta[163] + 8.11506e-06 beta[164]
   + 6.96976e-06 beta[165] + 3.84549e-06 beta[166] + 9.45499e-07 beta[167]
   - 0.00169178970991928 beta[168] - 7.1436958450391637e-04 beta[169]
   - 3.4595721246896992e-04 beta[170] - 1.8254148477904757e-04 beta[171]
   - 1.0309068659047502e-04 beta[172] - 6.15162e-05 beta[173]
   - 3.83596e-05 beta[174] - 2.47693e-05 beta[175]
   + 0.00188801263283019 beta[176] + 8.5362053867526816e-04 beta[177]
   + 4.2164052013054913e-04 beta[178] + 2.2496789100484935e-04 beta[179]
   + 1.287362495765098e-04 beta[180] + 7.86135e-05 beta[181]
   + 5.0981e-05 beta[182] + 3.4899e-05 beta[183]
   - 5.6934915477051208e-04 beta[184] - 3.2040385220221079e-04 beta[185]
   - 1.8496082366722963e-04 beta[186] - 1.1329613885212388e-04 beta[187]
   - 7.36525e-05 beta[188] - 5.07919e-05 beta[189] - 3.69754e-05 beta[190]
   - 2.81688e-05 beta[191] - 0.022889505051034 beta[192]
   - 0.00538869975041792 beta[193] + 0.00958974626506675 beta[194]
   + 0.00780603428954485 beta[195] - 0.00310682772254298 beta[196]
   - 0.00716772704819192 beta[197] - 0.0013441208546274 beta[198]
   + 0.00423406097421501 beta[199] + 0.00904481275476884 beta[200]
   + 0.0023883889983759 beta[201] - 0.00381889780482627 beta[202]
   - 0.00381404367077908 beta[203] + 0.000598508 beta[204]
   + 0.00333166544322523 beta[205] + 0.00169849031261116 beta[206]
   - 0.00135172798525547 beta[207] + 0.00398383283072027 beta[208]
   + 8.5911121201006138e-04 beta[209] - 0.00136630613947411 beta[210]
   - 4.7244828481387776e-04 beta[211] + 0.00114162593051028 beta[212]
   + 5.879608985571652e-04 beta[213] - 0.00116013788272713 beta[214]
   - 0.00120775403583374 beta[215] - 0.00661719474165982 beta[216]
   - 0.00204592476865402 beta[217] + 0.00210217613765156 beta[218]
   + 0.00203729950040496 beta[219] - 6.0998441942576218e-04 beta[220]
   - 0.00172339488293215 beta[221] - 0.000220366 beta[222]
   + 0.00128725109074508 beta[223] + 0.00290636136609453 beta[224]
   + 0.0013804083892805 beta[225] - 5.0578719958382912e-04 beta[226]
   - 0.00128792318343446 beta[227] - 4.9342210353608073e-04 beta[228]
   + 0.000805302 beta[229] + 0.00106021756057976 beta[230]
   + 1.85711e-06 beta[231] + 8.44689e-06 beta[232]
   - 3.8232532538860374e-04 beta[233] - 3.5975437597946593e-04 beta[234]
   + 2.8072366668014385e-04 beta[235] + 6.1850740502100308e-04 beta[236]
   - 2.83268e-05 beta[237] - 8.6138445121909137e-04 beta[238]
   - 0.000584596 beta[239] - 5.8761867012177462e-04 beta[240]
   - 1.7161552670713097e-04 beta[241] + 0.000143438 beta[242]
   + 8.61763e-05 beta[243] - 3.83825e-05 beta[244] + 8.16613e-05 beta[245]
   + 2.5488787010547468e-04 beta[246] + 1.2845880816805301e-04 beta[247]
   + 6.8262982046357189e-04 beta[248] + 5.1292233779127582e-04 beta[249]
   + 1.3780570598701683e-04 beta[250] - 0.000302549 beta[251]
   - 4.5934487766487604e-04 beta[252] - 1.529775154834165e-04 beta[253]
   + 2.7389774119161275e-04 beta[254] + 2.8105124908361765e-04 beta[255]
   - 0.0014422528238067 beta[256] - 8.3132945478904085e-04 beta[257]
   + 9.65871e-05 beta[258] + 6.9617281410935187e-04 beta[259]
   + 0.000471578 beta[260] - 2.2998446961817635e-04 beta[261]
   - 0.000506688 beta[262] - 5.65259e-05 beta[263]
   + 0.00211992685238061 beta[264] + 0.000814972 beta[265]
   - 0.000542217 beta[266] - 7.9502915211921235e-04 beta[267]
   - 7.6424e-05 beta[268] + 5.1142739977112837e-04 beta[269]
   + 2.9774630430053095e-04 beta[270] - 2.5967549859422917e-04 beta[271]
   - 0.00104038084080958 beta[272] - 2.6545041727054123e-04 beta[273]
   + 3.4093541706876071e-04 beta[274] + 2.3351534023220848e-04 beta[275]
   - 1.2967140775075659e-04 beta[276] - 1.7448959226751151e-04 beta[277]
   + 8.3536e-06 beta[278] + 8.93356e-05 beta[279]
   - 0.0013770172195875 beta[280] - 3.9090114241152027e-04 beta[281]
   + 0.000505554 beta[282] + 4.8206080781025215e-04 beta[283]
   - 1.0593421576113919e-04 beta[284] - 3.4132927010652018e-04 beta[285]
   - 1.49992e-05 beta[286] + 2.2737166390041742e-04 beta[287]
   - 0.0775469772918346 beta[288] + 0.00276404449569422 beta[289]
   - 0.0201606148893171 beta[290] + weighted_residual[15]
   = -0.1160977672264934
 R606: - 0.1201372699334516 beta[0] - 0.0120351707424392 beta[1]
   + 0.000989359 beta[2] + 0.00294315013351484 beta[3]
   + 0.0028151222855147 beta[4] + 0.00229076969834062 beta[5]
   + 0.00177631789275683 beta[6] + 0.00136039785977511 beta[7]
   + 0.0457642841578326 beta[8] - 0.00591811800539991 beta[9]
   - 0.00759947655148731 beta[10] - 0.00566738948732721 beta[11]
   - 0.00399023428101095 beta[12] - 0.00281099360117511 beta[13]
   - 0.0020106163328082 beta[14] - 0.00146722646495362 beta[15]
   + 0.0199090233185133 beta[16] + 0.0259799620312007 beta[17]
   + 0.015424243273163 beta[18] + 0.00894224495278313 beta[19]
   + 0.00540998167216719 beta[20] + 0.00344058372320026 beta[21]
   + 0.00229428854296775 beta[22] + 0.00159655166958281 beta[23]
   - 0.0656044600702652 beta[24] - 0.0415218760199451 beta[25]
   - 0.0210962821022816 beta[26] - 0.0111662824427883 beta[27]
   - 0.00632472863857046 beta[28] - 0.003829343282771 beta[29]
   - 0.00246344188796251 beta[30] - 0.00167145587909239 beta[31]
   + 0.1244256749579018 beta[32] + 0.0560211239068543 beta[33]
   + 0.0252139809901422 beta[34] + 0.0124366199061506 beta[35]
   + 0.00673336864512378 beta[36] + 0.00396282944100839 beta[37]
   + 0.00250672769269098 beta[38] + 0.00168500411499484 beta[39]
   - 0.1813055242386027 beta[40] - 0.0690809524706294 beta[41]
   - 0.0285249873253251 beta[42] - 0.0132770100615366 beta[43]
   - 0.00692369366843324 beta[44] - 0.00398849417390251 beta[45]
   - 0.00249754421405337 beta[46] - 0.00167321965857997 beta[47]
   + 0.2259625974974956 beta[48] + 0.0794350287377676 beta[49]
   + 0.0309746642436175 beta[50] + 0.0138364142970018 beta[51]
   + 0.00702776416832771 beta[52] + 0.0039912569227397 beta[53]
   + 0.00248452716269478 beta[54] + 0.00166240896394732 beta[55]
   - 0.2751994719002157 beta[56] - 0.0889164832955463 beta[57]
   - 0.0328599651659385 beta[58] - 0.0141871088572751 beta[59]
   - 0.00707249414460689 beta[60] - 0.00398443436757777 beta[61]
   - 0.00247498431765639 beta[62] - 0.00165663906158103 beta[63]
   + 0.3226604113646799 beta[64] + 0.097466826871823 beta[65]
   + 0.034424162919734 beta[66] + 0.0144368394560265 beta[67]
   + 0.00709073420886102 beta[68] + 0.00397385045231582 beta[69]
   + 0.00246724740053617 beta[70] + 0.00165319056074978 beta[71]
   - 0.3611493284409818 beta[72] - 0.1043957711806622 beta[73]
   - 0.035632583945221 beta[74] - 0.0146153971847841 beta[75]
   - 0.00710074525457992 beta[76] - 0.00396586652712715 beta[77]
   - 0.00246219645777547 beta[78] - 0.00165121612691196 beta[79]
   + 0.4019218554145791 beta[80] + 0.1108596009637357 beta[81]
   + 0.0366234245402994 beta[82] + 0.0147393900633341 beta[83]
   + 0.00710367838726011 beta[84] + 0.0039599675511802 beta[85]
   + 0.00245934203565242 beta[86] + 0.00165037961710896 beta[87]
   - 0.4414756045663935 beta[88] - 0.116803285590682 beta[89]
   - 0.0374854462151656 beta[90] - 0.0148376256153258 beta[91]
   - 0.00710400367432633 beta[92] - 0.00395519583706649 beta[93]
   - 0.00245746789958145 beta[94] - 0.00165001143753666 beta[95]
   - 0.00692837630813633 beta[96] - 0.00164484887384637 beta[97]
   - 0.000731097 beta[98] - 0.000414853 beta[99]
   - 2.5514825215157492e-04 beta[100] - 1.6246752264969605e-04 beta[101]
   - 1.0549848334044624e-04 beta[102] - 6.93974e-05 beta[103]
   + 2.9190184324258026e-04 beta[104] + 0.00023316 beta[105]
   + 1.7454447251561157e-04 beta[106] + 1.2306622352370409e-04 beta[107]
   + 8.45526e-05 beta[108] + 5.75423e-05 beta[109] + 3.90596e-05 beta[110]
   + 2.65212e-05 beta[111] + 0.00120635137325824 beta[112]
   + 1.6668534912367167e-04 beta[113] + 6.93813e-05 beta[114]
   + 4.31939e-05 beta[115] + 2.85682e-05 beta[116] + 1.91553e-05 beta[117]
   + 1.29391e-05 beta[118] + 8.78622e-06 beta[119]
   + 0.0010441729451787 beta[120] + 2.2698934949501158e-04 beta[121]
   + 4.19877e-05 beta[122] - 5.65785e-06 beta[123] - 1.67695e-05 beta[124]
   - 1.70865e-05 beta[125] - 1.43912e-05 beta[126] - 1.12411e-05 beta[127]
   - 1.4026365852721668e-04 beta[128] - 3.23339e-05 beta[129]
   - 2.05736e-05 beta[130] - 9.24011e-06 beta[131] - 2.52468e-06 beta[132]
   + 6.16914e-07 beta[133] + 1.79768e-06 beta[134] + 2.03424e-06 beta[135]
   - 6.1904820553157925e-04 beta[136] - 1.223543088561111e-04 beta[137]
   - 4.01454e-05 beta[138] - 1.69557e-05 beta[139] - 7.50971e-06 beta[140]
   - 3.12045e-06 beta[141] - 1.04289e-06 beta[142] - 9.54584e-08 beta[143]
   - 5.0152466721052104e-04 beta[144] - 9.71442e-05 beta[145]
   - 1.1253e-05 beta[146] + 4.76305e-06 beta[147] + 5.78398e-06 beta[148]
   + 4.05806e-06 beta[149] + 2.35987e-06 beta[150] + 1.17892e-06 beta[151]
   + 9.84249e-05 beta[152] + 1.5013e-05 beta[153] + 7.31705e-06 beta[154]
   + 3.04651e-06 beta[155] + 8.53222e-07 beta[156] + 3.0743e-09 beta[157]
   - 2.22333e-07 beta[158] - 2.14862e-07 beta[159]
   + 4.2371915689581359e-04 beta[160] + 8.81874e-05 beta[161]
   + 2.4176e-05 beta[162] + 7.51233e-06 beta[163] + 2.1421e-06 beta[164]
   + 3.14434e-07 beta[165] - 2.45057e-07 beta[166] - 3.45482e-07 beta[167]
   + 3.1539367687154034e-04 beta[168] + 5.9509e-05 beta[169]
   + 7.16567e-06 beta[170] - 1.44751e-06 beta[171] - 1.76346e-06 beta[172]
   - 9.74519e-07 beta[173] - 3.7374e-07 beta[174] - 5.69596e-08 beta[175]
   - 8.60946e-05 beta[176] - 1.34472e-05 beta[177] - 5.18125e-06 beta[178]
   - 2.1854e-06 beta[179] - 8.14285e-07 beta[180] - 2.62961e-07 beta[181]
   - 7.14704e-08 beta[182] - 1.63646e-08 beta[183] - 0.000324264 beta[184]
   - 6.76519e-05 beta[185] - 1.6506e-05 beta[186] - 4.1793e-06 beta[187]
   - 8.40273e-07 beta[188] + 3.43187e-08 beta[189] + 1.93398e-07 beta[190]
   + 1.63072e-07 beta[191] - 0.024028871971514 beta[192]
   - 0.00514693569738866 beta[193] + 0.00952927062080682 beta[194]
   + 0.00617630450118443 beta[195] - 0.00378543424118744 beta[196]
   - 0.00473419303424788 beta[197] + 0.00120297413361864 beta[198]
   + 0.00279740484802142 beta[199] + 0.00490670547294603 beta[200]
   + 0.00207955388337115 beta[201] - 0.00113876972072795 beta[202]
   - 0.00222968598302221 beta[203] - 9.0033452258340692e-04 beta[204]
   + 9.5050688806703543e-04 beta[205] + 0.00140194970718615 beta[206]
   + 3.8364579936242245e-04 beta[207] + 0.00557313217701129 beta[208]
   + 4.2794753874159878e-04 beta[209] - 0.00283280670732157 beta[210]
   - 0.000707352 beta[211] + 0.00225875556413354 beta[212]
   + 0.00131844983126323 beta[213] - 0.00149794 beta[214]
   - 0.00167463047437111 beta[215] - 0.00140464021144621 beta[216]
   - 8.0284681525250208e-04 beta[217] + 1.5090137898449594e-04 beta[218]
   + 7.4120139565378527e-04 beta[219] + 3.627481813246766e-04 beta[220]
   - 5.1139885869420443e-04 beta[221] - 6.8625649236102055e-04 beta[222]
   + 0.000122687 beta[223] - 6.0556744175001016e-04 beta[224]
   + 0.000571632 beta[225] + 0.000907123 beta[226]
   - 2.6469659641226265e-04 beta[227] - 0.00111675376635223 beta[228]
   - 0.000284527 beta[229] + 9.6053443492744321e-04 beta[230]
   + 0.000770942 beta[231] - 0.00216380704610645 beta[232]
   - 0.000588074 beta[233] + 6.1698220166189538e-04 beta[234]
   + 4.1505055489441674e-04 beta[235] - 1.513316692983668e-04 beta[236]
   - 4.30122e-05 beta[237] + 0.000188822 beta[238] - 0.000197372 beta[239]
   + 0.00117615 beta[240] + 3.5519227148577212e-04 beta[241]
   - 0.000336991 beta[242] - 2.903961168055025e-04 beta[243]
   + 7.52436e-05 beta[244] + 1.2004767113918449e-04 beta[245]
   - 7.04282e-05 beta[246] - 1.35392e-05 beta[247]
   + 0.00119817928541485 beta[248] + 3.47843e-05 beta[249]
   - 6.2109168811589623e-04 beta[250] - 6.96802e-05 beta[251]
   + 4.8969416405904602e-04 beta[252] + 1.0847379929195453e-04 beta[253]
   - 4.3785114988465076e-04 beta[254] - 1.8972137318263397e-04 beta[255]
   - 2.201652467170692e-04 beta[256] - 1.5680728068628294e-04 beta[257]
   - 3.05594e-05 beta[258] + 8.52115e-05 beta[259] + 9.96832e-05 beta[260]
   + 3.58434e-05 beta[261] - 1.06789e-05 beta[262] - 2.38788e-05 beta[263]
   - 3.2588120411179944e-04 beta[264] + 2.1556683338431904e-04 beta[265]
   + 3.923616905326194e-04 beta[266] - 8.59273e-05 beta[267]
   - 4.3470934770387966e-04 beta[268] - 0.00012671 beta[269]
   + 0.000286868 beta[270] + 1.7971143854183451e-04 beta[271]
   - 0.00115243561847231 beta[272] - 3.4841124453680061e-04 beta[273]
   + 0.000319563 beta[274] + 2.7744441023847547e-04 beta[275]
   - 5.21793e-05 beta[276] - 9.37564e-05 beta[277] + 5.67037e-05 beta[278]
   + 2.67614e-05 beta[279] + 8.8161912772856106e-04 beta[280]
   + 0.000280529 beta[281] - 2.3975752483509013e-04 beta[282]
   - 0.000236345 beta[283] + 1.98225e-05 beta[284] + 9.84315e-05 beta[285]
   + 6.99097e-06 beta[286] - 1.46883e-05 beta[287]
   - 0.1178540361261741 beta[288] + 0.00309079183408369 beta[289]
   - 0.0255279227953956 beta[290] + weighted_residual[16]
   = -0.1574379255457141
 R607: - 0.0299961359451209 beta[0] - 0.00368607445197093 beta[1]
   - 0.00163126530578653 beta[2] - 7.2230752443037342e-04 beta[3]
   - 3.4643145694870334e-04 beta[4] - 1.8456284259250942e-04 beta[5]
   - 1.0770923067544695e-04 beta[6] - 6.75237e-05 beta[7]
   + 0.0299961359451211 beta[8] + 0.00368607445197094 beta[9]
   + 0.00163126530578653 beta[10] + 7.2230752443037418e-04 beta[11]
   + 3.4643145694870323e-04 beta[12] + 1.8456284259250931e-04 beta[13]
   + 1.0770923067544703e-04 beta[14] + 6.75237e-05 beta[15]
   - 0.029996135945121 beta[16] - 0.00368607445197093 beta[17]
   - 0.00163126530578653 beta[18] - 7.2230752443037461e-04 beta[19]
   - 3.4643145694870312e-04 beta[20] - 1.8456284259250918e-04 beta[21]
   - 1.07709230675447e-04 beta[22] - 6.75237e-05 beta[23]
   + 0.0299961359451209 beta[24] + 0.00368607445197094 beta[25]
   + 0.00163126530578653 beta[26] + 7.2230752443037342e-04 beta[27]
   + 3.4643145694870301e-04 beta[28] + 1.8456284259250931e-04 beta[29]
   + 1.077092306754471e-04 beta[30] + 6.75237e-05 beta[31]
   - 0.0299961359451209 beta[32] - 0.00368607445197093 beta[33]
   - 0.00163126530578653 beta[34] - 7.2230752443037342e-04 beta[35]
   - 3.4643145694870312e-04 beta[36] - 1.8456284259250948e-04 beta[37]
   - 1.077092306754471e-04 beta[38] - 6.75237e-05 beta[39]
   + 0.0299961359451208 beta[40] + 0.00368607445197094 beta[41]
   + 0.00163126530578653 beta[42] + 7.223075244303732e-04 beta[43]
   + 3.4643145694870334e-04 beta[44] + 1.8456284259250942e-04 beta[45]
   + 1.0770923067544707e-04 beta[46] + 6.75237e-05 beta[47]
   - 0.0299961359451209 beta[48] - 0.00368607445197096 beta[49]
   - 0.00163126530578653 beta[50] - 7.2230752443037363e-04 beta[51]
   - 3.4643145694870301e-04 beta[52] - 1.8456284259250918e-04 beta[53]
   - 1.07709230675447e-04 beta[54] - 6.75237e-05 beta[55]
   + 0.0299961359451209 beta[56] + 0.00368607445197097 beta[57]
   + 0.00163126530578653 beta[58] + 7.223075244303732e-04 beta[59]
   + 3.4643145694870323e-04 beta[60] + 1.8456284259250918e-04 beta[61]
   + 1.0770923067544705e-04 beta[62] + 6.75237e-05 beta[63]
   - 0.0299961359451208 beta[64] - 0.00368607445197097 beta[65]
   - 0.00163126530578653 beta[66] - 7.2230752443037298e-04 beta[67]
   - 3.4643145694870339e-04 beta[68] - 1.8456284259250931e-04 beta[69]
   - 1.077092306754471e-04 beta[70] - 6.75237e-05 beta[71]
   + 0.0299961359451209 beta[72] + 0.00368607445197098 beta[73]
   + 0.00163126530578653 beta[74] + 7.2230752443037342e-04 beta[75]
   + 3.4643145694870312e-04 beta[76] + 1.8456284259250937e-04 beta[77]
   + 1.077092306754471e-04 beta[78] + 6.75237e-05 beta[79]
   - 0.0299961359451209 beta[80] - 0.00368607445197096 beta[81]
   - 0.00163126530578652 beta[82] - 7.2230752443037222e-04 beta[83]
   - 3.4643145694870274e-04 beta[84] - 1.8456284259250937e-04 beta[85]
   - 1.077092306754471e-04 beta[86] - 6.75237e-05 beta[87]
   + 0.0299961359451208 beta[88] + 0.00368607445197097 beta[89]
   + 0.00163126530578653 beta[90] + 7.2230752443037212e-04 beta[91]
   + 3.4643145694870323e-04 beta[92] + 1.845628425925095e-04 beta[93]
   + 1.0770923067544705e-04 beta[94] + 6.75237e-05 beta[95]
   - 0.0321885369996884 beta[192] - 0.00736664864236893 beta[193]
   + 0.0121227390813676 beta[194] + 0.00787065543229046 beta[195]
   - 0.00536784780921333 beta[196] - 0.00648637582116445 beta[197]
   + 0.00225592431932683 beta[198] + 0.00509914912097744 beta[199]
   + 3.9231239592620758e-04 beta[200] + 0.00236862071734762 beta[201]
   + 0.00191035038196209 beta[202] - 0.00142976326345391 beta[203]
   - 0.00268496695657957 beta[204] + 8.76291e-05 beta[205]
   + 0.00232147233670146 beta[206] + 6.0937477518092681e-04 beta[207]
   + 0.00674782668869024 beta[208] + 9.2263982788134556e-04 beta[209]
   - 0.00366552955716786 beta[210] - 0.00222507367780932 beta[211]
   + 0.00192818171433234 beta[212] + 0.00269739966698022 beta[213]
   - 3.4705142692039364e-04 beta[214] - 0.00227865875066049 beta[215]
   - 4.5253688975904185e-04 beta[216] - 7.7514535066362388e-04 beta[217]
   - 1.1158915173439868e-04 beta[218] + 0.0012096743581538 beta[219]
   + 0.00111000893241173 beta[220] - 6.8616944300202301e-04 beta[221]
   - 0.00162617282949014 beta[222] - 2.1500014018270249e-04 beta[223]
   - 9.8165679200970394e-04 beta[224] + 6.01579e-05 beta[225]
   + 0.000746183 beta[226] + 1.1934260192209491e-04 beta[227]
   - 9.4911337683916514e-04 beta[228] - 0.000823573 beta[229]
   + 5.2806619214061038e-04 beta[230] + 0.00125427753632604 beta[231]
   + 2.0765242320146881e-04 beta[232] - 4.09651e-07 beta[233]
   - 2.4446848401662232e-04 beta[234] - 2.1915747391569671e-04 beta[235]
   + 1.9442048877274507e-04 beta[236] + 5.8789624675326699e-04 beta[237]
   + 3.5597582244356179e-04 beta[238] - 4.1547153452024788e-04 beta[239]
   + 5.8899642607567859e-04 beta[240] + 1.2179361173543317e-04 beta[241]
   - 1.7757052379358492e-04 beta[242] - 2.99719e-06 beta[243]
   + 1.8190779507724019e-04 beta[244] - 8.42046e-05 beta[245]
   - 4.6513174524262388e-04 beta[246] - 2.8528585347616494e-04 beta[247]
   - 4.81292e-05 beta[248] - 8.25642e-05 beta[249] - 6.43165e-05 beta[250]
   - 9.53428e-06 beta[251] - 8.43129e-06 beta[252] - 4.55373e-06 beta[253]
   + 1.3479458792126024e-04 beta[254] + 2.8572927352272826e-04 beta[255]
   - 0.000136787 beta[256] + 3.65277e-06 beta[257]
   + 1.1328116547525915e-04 beta[258] + 8.14e-05 beta[259]
   - 9.20259e-06 beta[260] - 3.7274e-05 beta[261] - 3.91437e-05 beta[262]
   - 1.1618962249581661e-04 beta[263] + 2.58128e-06 beta[264]
   + 1.5286e-06 beta[265] - 2.1921e-05 beta[266] - 5.38801e-05 beta[267]
   - 5.05237e-05 beta[268] - 7.64213e-06 beta[269] + 3.63335e-05 beta[270]
   + 7.29128e-05 beta[271] + 5.00313e-05 beta[272] + 1.40194e-05 beta[273]
   - 1.03129e-05 beta[274] + 9.67918e-06 beta[275] + 4.72296e-05 beta[276]
   + 4.9594e-05 beta[277] + 4.18162e-06 beta[278] - 5.38429e-05 beta[279]
   - 2.23391e-05 beta[280] - 1.07976e-05 beta[281] + 1.3292e-06 beta[282]
   - 1.91865e-06 beta[283] - 2.37488e-05 beta[284] - 4.25286e-05 beta[285]
   - 3.06295e-05 beta[286] + 1.27825e-05 beta[287]
   - 0.0363689179480715 beta[288] - 3.79118e-05 beta[289]
   - 0.0344420572097808 beta[290] + weighted_residual[17]
   = -0.0705225901836497
 R608: - 0.0282117383349266 beta[0] + 0.0122524513594828 beta[1]
   + 0.0074428109968898 beta[2] + 0.00337934262872607 beta[3]
   + 0.00155401396672602 beta[4] + 0.000768238 beta[5]
   + 4.131481060229065e-04 beta[6] + 2.4079179775067169e-04 beta[7]
   - 0.0760821470055402 beta[8] - 0.0167479205768933 beta[9]
   - 0.00494433749314739 beta[10] - 0.00173120511744118 beta[11]
   - 7.0534471225777392e-04 beta[12] - 3.3031728647711791e-04 beta[13]
   - 0.000174706 beta[14] - 0.000102241 beta[15]
   + 0.0685328421239323 beta[16] + 0.00704537588173812 beta[17]
   + 7.64931e-05 beta[18] - 0.000385192 beta[19]
   - 2.476146047505263e-04 beta[20] - 1.3425936870863561e-04 beta[21]
   - 7.25851e-05 beta[22] - 4.07688e-05 beta[23]
   + 0.0640362776214573 beta[24] + 0.0137630237806352 beta[25]
   + 0.00409738793815443 beta[26] + 0.00140699198305866 beta[27]
   + 5.5126055478311314e-04 beta[28] + 2.4669850133780336e-04 beta[29]
   + 0.000125279 beta[30] + 7.11405e-05 beta[31]
   - 0.1028028482547826 beta[32] - 0.0178583845875082 beta[33]
   - 0.00340190018053903 beta[34] - 0.000699044 beta[35]
   - 1.4338456181447852e-04 beta[36] - 2.56907e-05 beta[37]
   - 2.75788e-06 beta[38] - 1.48274e-07 beta[39]
   - 0.00935174779815712 beta[40] - 0.00231240137481224 beta[41]
   - 0.00140570861735928 beta[42] - 0.000716896 beta[43]
   - 3.6725775030327173e-04 beta[44] - 1.9936119010434519e-04 beta[45]
   - 1.156046161961077e-04 beta[46] - 7.11468e-05 beta[47]
   + 0.0914208405305115 beta[48] + 0.0186501197766743 beta[49]
   + 0.0042121620403768 beta[50] + 0.00111787489719796 beta[51]
   + 3.7060655959269531e-04 beta[52] + 1.6306669548695848e-04 beta[53]
   + 9.29575e-05 beta[54] + 6.25938e-05 beta[55]
   - 0.0420239567500297 beta[56] - 0.00900831839604137 beta[57]
   - 0.00132313188405424 beta[58] - 2.61216e-05 beta[59]
   + 0.000115177 beta[60] + 8.12274e-05 beta[61] + 4.15372e-05 beta[62]
   + 1.65724e-05 beta[63] - 0.041738204431407 beta[64]
   - 0.01147758429528 beta[65] - 0.00332796579578715 beta[66]
   - 0.00116175289937394 beta[67] - 4.9484520091658366e-04 beta[68]
   - 2.48268380742452e-04 beta[69] - 1.3918767305224272e-04 beta[70]
   - 8.36319e-05 beta[71] + 0.0572901557547342 beta[72]
   + 0.0150841942843331 beta[73] + 0.00349296666131358 beta[74]
   + 8.917397912507997e-04 beta[75] + 0.000295673 beta[76]
   + 1.4355518462673411e-04 beta[77] + 9.25681e-05 beta[78]
   + 6.72901e-05 beta[79] - 0.0143406674009375 beta[80]
   + 3.3943225875865293e-04 beta[81] + 9.0649585598556064e-04 beta[82]
   + 5.2066685323704247e-04 beta[83] + 2.5043823563753858e-04 beta[84]
   + 0.00011024 beta[85] + 4.28162e-05 beta[86] + 1.15968e-05 beta[87]
   - 0.0306361737531412 beta[88] - 0.0131524715779039 beta[89]
   - 0.00392999038022841 beta[90] - 0.00125113263279789 beta[91]
   - 4.6906387580451938e-04 beta[92] - 2.1075880738425403e-04 beta[93]
   - 0.000108651 beta[94] - 6.07688e-05 beta[95]
   - 0.0134229742996163 beta[96] - 0.0020391793626769 beta[97]
   - 3.21755e-05 beta[98] + 3.1254842563592923e-04 beta[99]
   + 3.2626461562019099e-04 beta[100] + 0.000278393 beta[101]
   + 2.2731948667470967e-04 beta[102] + 1.8458837904195845e-04 beta[103]
   - 0.00391089865345172 beta[104] - 0.00128806912000238 beta[105]
   - 6.191885936151231e-04 beta[106] - 3.4489114751077551e-04 beta[107]
   - 0.000211421 beta[108] - 1.4001237791996302e-04 beta[109]
   - 9.88695e-05 beta[110] - 7.35932e-05 beta[111]
   + 0.008704826226216 beta[112] + 0.00209328406380405 beta[113]
   + 5.6632116895621442e-04 beta[114] + 0.000141119 beta[115]
   + 8.07089e-06 beta[116] - 3.41868e-05 beta[117] - 4.51976e-05 beta[118]
   - 4.5035e-05 beta[119] + 0.00352614216136454 beta[120]
   + 8.8816127291137053e-04 beta[121] + 3.9674160546261959e-04 beta[122]
   + 0.000227145 beta[123] + 1.5035780149116041e-04 beta[124]
   + 1.0971756340196434e-04 beta[125] + 8.54602e-05 beta[126]
   + 6.95001e-05 beta[127] - 0.00797320392942996 beta[128]
   - 0.00239798954370023 beta[129] - 0.000817456 beta[130]
   - 0.000299482 beta[131] - 1.1035479458777319e-04 beta[132]
   - 3.75739e-05 beta[133] - 9.63216e-06 beta[134] + 2.32756e-07 beta[135]
   - 0.00141540658626769 beta[136] + 4.48181e-05 beta[137]
   + 1.16796e-05 beta[138] - 5.11128e-05 beta[139] - 7.79793e-05 beta[140]
   - 8.32302e-05 beta[141] - 7.85901e-05 beta[142] - 7.02431e-05 beta[143]
   + 0.00629076113873561 beta[144] + 0.00209067169439979 beta[145]
   + 7.708078097048008e-04 beta[146] + 3.2773541777185954e-04 beta[147]
   + 1.6449264126193014e-04 beta[148] + 9.93584e-05 beta[149]
   + 7.10281e-05 beta[150] + 5.71744e-05 beta[151]
   - 6.3471248482601013e-04 beta[152] - 8.444144418056611e-04 beta[153]
   - 3.6101832358734784e-04 beta[154] - 1.1705431085678975e-04 beta[155]
   - 1.67076e-05 beta[156] + 1.83419e-05 beta[157] + 2.61026e-05 beta[158]
   + 2.34845e-05 beta[159] - 0.00379634303842381 beta[160]
   - 0.00137303134608163 beta[161] - 5.5512640995433727e-04 beta[162]
   - 2.8304362508336205e-04 beta[163] - 0.000178299 beta[164]
   - 1.2883982864389716e-04 beta[165] - 9.99071e-05 beta[166]
   - 7.9982e-05 beta[167] + 0.00174193466607476 beta[168]
   + 0.00129760166023697 beta[169] + 6.2708051216106716e-04 beta[170]
   + 2.9853145898847401e-04 beta[171] + 0.000153718 beta[172]
   + 9.12117e-05 beta[173] + 6.37716e-05 beta[174] + 5.08864e-05 beta[175]
   + 0.0012531416730641 beta[176] + 4.2247383089665067e-04 beta[177]
   + 1.5277678967426451e-04 beta[178] + 8.87598e-05 beta[179]
   + 6.71565e-05 beta[180] + 5.19626e-05 beta[181] + 3.81056e-05 beta[182]
   + 2.59256e-05 beta[183] - 0.00159529031761149 beta[184]
   - 0.00119854761764036 beta[185] - 6.3652187464619859e-04 beta[186]
   - 3.3948415504317798e-04 beta[187] - 1.9516057406527231e-04 beta[188]
   - 1.2310457432652955e-04 beta[189] - 8.42856e-05 beta[190]
   - 6.1203e-05 beta[191] - 0.01839875509925 beta[192]
   + 0.00284998227558552 beta[193] + 0.0147016307751734 beta[194]
   + 0.00217480401685513 beta[195] - 0.0130169287467503 beta[196]
   - 0.00753321438179566 beta[197] + 0.00865411825971314 beta[198]
   + 0.010268663498001 beta[199] + 0.00790875204305425 beta[200]
   - 0.00225371332908333 beta[201] - 0.00760113454010522 beta[202]
   - 9.8873975411209025e-04 beta[203] + 0.00668883305816008 beta[204]
   + 0.00393561030556389 beta[205] - 0.00420363053827751 beta[206]
   - 0.00516126720951797 beta[207] + 0.00479521630520139 beta[208]
   + 0.000972838 beta[209] - 0.00157302603273359 beta[210]
   - 2.4714138810170581e-04 beta[211] + 0.00165078090292576 beta[212]
   + 0.000633151 beta[213] - 0.00158743947976121 beta[214]
   - 0.00133520365218562 beta[215] - 0.00898301341281897 beta[216]
   + 8.2980112230627721e-04 beta[217] + 0.00614883315033749 beta[218]
   + 3.2995480864396633e-04 beta[219] - 0.00619269500677385 beta[220]
   - 0.00300026484968265 beta[221] + 0.00449697290930152 beta[222]
   + 0.00467665972044536 beta[223] + 0.00143367321159138 beta[224]
   - 0.00236493783519534 beta[225] - 0.00345725121234238 beta[226]
   + 6.7194649361875642e-04 beta[227] + 0.00428355479758664 beta[228]
   + 0.00211472493811202 beta[229] - 0.0026159460926912 beta[230]
   - 0.00319445866285704 beta[231] + 0.00838499916310787 beta[232]
   + 0.00248977729811044 beta[233] - 0.00205823948143473 beta[234]
   - 0.00129338748096231 beta[235] + 8.7548946515468855e-04 beta[236]
   + 1.7098423312511877e-04 beta[237] - 0.00154695463682983 beta[238]
   - 0.0006845 beta[239] - 0.00808009385972565 beta[240]
   - 8.0419252707619282e-04 beta[241] + 0.00359811321222081 beta[242]
   + 3.0032514249283095e-04 beta[243] - 0.00363409471783356 beta[244]
   - 0.00123173338916818 beta[245] + 0.00359779579252079 beta[246]
   + 0.00308231472664378 beta[247] - 0.00191482590826871 beta[248]
   - 0.0015664021456374 beta[249] - 2.4308423518438346e-04 beta[250]
   + 0.00167493525342822 beta[251] + 0.00229978278075742 beta[252]
   + 4.2681535285141571e-04 beta[253] - 0.00220375224643554 beta[254]
   - 0.00240851686588412 beta[255] + 0.0093612142671322 beta[256]
   + 0.00272946931450805 beta[257] - 0.00286365099704129 beta[258]
   - 0.00264001025437994 beta[259] + 9.21647e-05 beta[260]
   + 6.6123539315871168e-04 beta[261] - 0.000260986 beta[262]
   + 2.0879650764233591e-04 beta[263] - 0.00684709540368071 beta[264]
   - 0.00175760092647866 beta[265] + 0.00223038770425645 beta[266]
   + 0.00141673668381698 beta[267] - 9.2871373776226226e-04 beta[268]
   - 4.4982329241079975e-04 beta[269] + 0.0016300980418303 beta[270]
   + 0.00118274577553189 beta[271] - 0.00135600205273544 beta[272]
   - 0.000456994 beta[273] + 6.2813944270438628e-04 beta[274]
   + 0.00107096752877784 beta[275] + 4.646656958973126e-04 beta[276]
   - 8.6292969664066108e-04 beta[277] - 0.00175196677178464 beta[278]
   - 0.00100382109858273 beta[279] + 0.00750698291181858 beta[280]
   + 0.00205949689152008 beta[281] - 0.00278392372279715 beta[282]
   - 0.00270659871711583 beta[283] + 2.3682867324276282e-04 beta[284]
   + 0.00174716660606074 beta[285] + 0.00103148539420904 beta[286]
   + 1.9802680314447241e-04 beta[287] + 0.00437351911007879 beta[288]
   - 0.00219178370344996 beta[289] - 0.0689047937516384 beta[290]
   + weighted_residual[18] = -0.0510423016744403
 R609: - 0.0306069726748393 beta[0] + 0.0192338443281846 beta[1]
   + 0.00915635861249095 beta[2] + 0.00344956098618859 beta[3]
   + 0.00136731403083838 beta[4] + 0.000607509 beta[5]
   + 3.0483539398973151e-04 beta[6] + 0.000170299 beta[7]
   - 0.1142897528577104 beta[8] - 0.0201141174244477 beta[9]
   - 0.00507661787878295 beta[10] - 0.00156143780849108 beta[11]
   - 5.7410731913741444e-04 beta[12] - 2.4797072048543225e-04 beta[13]
   - 1.2250452591458343e-04 beta[14] - 6.72089e-05 beta[15]
   + 0.0947100377835266 beta[16] + 0.00489095552639763 beta[17]
   - 0.0010534504216664 beta[18] - 6.5198622462483936e-04 beta[19]
   - 2.8702984336666682e-04 beta[20] - 1.3227416960480244e-04 beta[21]
   - 6.91425e-05 beta[22] - 4.13174e-05 beta[23]
   + 0.1081437092493478 beta[24] + 0.0188380194744414 beta[25]
   + 0.00477569813757139 beta[26] + 0.00142353015272572 beta[27]
   + 5.0102440977718742e-04 beta[28] + 2.1055733432702366e-04 beta[29]
   + 1.0494059045128161e-04 beta[30] + 6.04793e-05 beta[31]
   - 0.1593025929667949 beta[32] - 0.0194673214976296 beta[33]
   - 0.00273299966906963 beta[34] - 4.3303354596357268e-04 beta[35]
   - 6.80806e-05 beta[36] - 4.10298e-06 beta[37] + 6.65609e-06 beta[38]
   + 7.26009e-06 beta[39] - 0.0361391436040744 beta[40]
   - 0.00701560901066327 beta[41] - 0.0024147354836022 beta[42]
   - 8.7164476921953462e-04 beta[43] - 3.6477184998305823e-04 beta[44]
   - 1.8353734477651994e-04 beta[45] - 1.0842943151338353e-04 beta[46]
   - 7.18551e-05 beta[47] + 0.1679044591940752 beta[48]
   + 0.0235886163375068 beta[49] + 0.00405774705116545 beta[50]
   + 0.000873916 beta[51] + 2.609696635620187e-04 beta[52]
   + 1.1785389993302668e-04 beta[53] + 7.39123e-05 beta[54]
   + 5.47667e-05 beta[55] - 0.0474757820533561 beta[56]
   - 0.00648394888409038 beta[57] - 1.0388124364450463e-04 beta[58]
   + 0.000333376 beta[59] + 2.1516383479461783e-04 beta[60]
   + 0.000115414 beta[61] + 5.97841e-05 beta[62] + 3.02754e-05 beta[63]
   - 0.1171739101402781 beta[64] - 0.0186061134993445 beta[65]
   - 0.00389991511235815 beta[66] - 0.00111238865519182 beta[67]
   - 4.4804270939507979e-04 beta[68] - 2.3608334214462429e-04 beta[69]
   - 1.4535375805198206e-04 beta[70] - 9.72425e-05 beta[71]
   + 0.0959440982541506 beta[72] + 0.0160021022215368 beta[73]
   + 0.00238779335359313 beta[74] + 4.1596340340154295e-04 beta[75]
   + 1.440345757789553e-04 beta[76] + 1.058938038266065e-04 beta[77]
   + 9.284e-05 beta[78] + 8.02141e-05 beta[79]
   + 0.0385262181631131 beta[80] + 0.00808110030077543 beta[81]
   + 0.0024106540626531 beta[82] + 8.3718934022733633e-04 beta[83]
   + 0.00032066 beta[84] + 0.000123073 beta[85] + 3.96008e-05 beta[86]
   + 2.79857e-06 beta[87] - 0.0905241518332383 beta[88]
   - 0.0185824011507462 beta[89] - 0.00377078794816275 beta[90]
   - 0.00100226342516137 beta[91] - 3.9253673109503593e-04 beta[92]
   - 2.0488735108064809e-04 beta[93] - 1.2182612375009235e-04 beta[94]
   - 7.59741e-05 beta[95] - 0.0168131195840609 beta[96]
   - 0.00157677443916166 beta[97] + 5.4550088285728454e-04 beta[98]
   + 6.5608065248316685e-04 beta[99] + 5.0107115116085257e-04 beta[100]
   + 3.5895516063295702e-04 beta[101] + 2.5893274024842025e-04 beta[102]
   + 1.9164860437897386e-04 beta[103] - 0.00477392244817723 beta[104]
   - 0.00157462219868319 beta[105] - 7.6337723510975218e-04 beta[106]
   - 4.2037868578762846e-04 beta[107] - 0.000252458 beta[108]
   - 1.6314831652092368e-04 beta[109] - 1.1225913895703588e-04 beta[110]
   - 8.14185e-05 beta[111] + 0.0114284186803842 beta[112]
   + 0.00207513799539505 beta[113] + 0.000344339 beta[114]
   + 1.42391e-06 beta[115] - 5.70868e-05 beta[116] - 5.62539e-05 beta[117]
   - 4.54681e-05 beta[118] - 3.52929e-05 beta[119]
   + 0.00437670863361584 beta[120] + 0.00122440338229712 beta[121]
   + 5.8480530132524187e-04 beta[122] + 3.1986640424969142e-04 beta[123]
   + 1.8986445681086183e-04 beta[124] + 0.000121263 beta[125]
   + 8.27782e-05 beta[126] + 5.98647e-05 beta[127]
   - 0.0114755437749891 beta[128] - 0.00272199349236545 beta[129]
   - 0.000758018 beta[130] - 2.3199375856393652e-04 beta[131]
   - 7.29647e-05 beta[132] - 2.11123e-05 beta[133] - 3.76458e-06 beta[134]
   + 1.69944e-06 beta[135] - 0.00154153618389729 beta[136]
   - 1.3337151394306792e-04 beta[137] - 1.4904246810048627e-04 beta[138]
   - 1.3630289414942785e-04 beta[139] - 1.1017326385562672e-04 beta[140]
   - 8.68447e-05 beta[141] - 6.88824e-05 beta[142] - 5.54283e-05 beta[143]
   + 0.0102148243001975 beta[144] + 0.00260376308890753 beta[145]
   + 7.8775013464410482e-04 beta[146] + 2.7554357489278323e-04 beta[147]
   + 1.1418745945579773e-04 beta[148] + 5.89017e-05 beta[149]
   + 3.83739e-05 beta[150] + 2.99022e-05 beta[151]
   - 0.00149433937464077 beta[152] - 0.000862478 beta[153]
   - 1.9341042233410471e-04 beta[154] + 1.68642e-05 beta[155]
   + 6.7055e-05 beta[156] + 6.86569e-05 beta[157] + 5.76503e-05 beta[158]
   + 4.51537e-05 beta[159] - 0.00742747303340627 beta[160]
   - 0.00199172188063756 beta[161] - 6.9117611833668534e-04 beta[162]
   - 3.1405856206252953e-04 beta[163] - 0.000183691 beta[164]
   - 0.000128093 beta[165] - 9.83416e-05 beta[166] - 7.91255e-05 beta[167]
   + 0.00346117852701922 beta[168] + 0.00155328465372689 beta[169]
   + 5.0777328888682624e-04 beta[170] + 0.000163027 beta[171]
   + 5.98975e-05 beta[172] + 3.30003e-05 beta[173] + 2.83957e-05 beta[174]
   + 2.91145e-05 beta[175] + 0.00394477507764526 beta[176]
   + 0.00107161674561922 beta[177] + 4.3663228438766598e-04 beta[178]
   + 2.4225950882871561e-04 beta[179] + 1.5737441770338238e-04 beta[180]
   + 1.0785071407390594e-04 beta[181] + 7.44961e-05 beta[182]
   + 5.0853e-05 beta[183] - 0.00389896515571766 beta[184]
   - 0.00181083192160101 beta[185] - 7.248916863995267e-04 beta[186]
   - 3.3037968270512133e-04 beta[187] - 1.8523229838073591e-04 beta[188]
   - 1.2488178034028151e-04 beta[189] - 9.41724e-05 beta[190]
   - 7.48413e-05 beta[191] - 0.0179547876082887 beta[192]
   + 0.00420198557714228 beta[193] + 0.0144710436344268 beta[194]
   - 8.164846636285149e-04 beta[195] - 0.0145791127468003 beta[196]
   - 0.00430320570269847 beta[197] + 0.0123112139584187 beta[198]
   + 0.0082030987865724 beta[199] + 0.00606745248159453 beta[200]
   - 0.00309782 beta[201] - 0.00663409429407992 beta[202]
   + 8.7587925270430126e-04 beta[203] + 0.00697050537647413 beta[204]
   + 0.00197762424809443 beta[205] - 0.00562204471651407 beta[206]
   - 0.00373204077056851 beta[207] + 0.00827640132773772 beta[208]
   + 0.00120612958848157 beta[209] - 0.0032541346026408 beta[210]
   - 5.4676481280471301e-04 beta[211] + 0.002792129749896 beta[212]
   + 7.0734838496942949e-04 beta[213] - 0.00288084128217252 beta[214]
   - 0.00161556109327704 beta[215] - 0.0107598849336465 beta[216]
   + 8.9165286252245997e-04 beta[217] + 0.00662565 beta[218]
   - 5.3099110538802358e-04 beta[219] - 0.0068697036649156 beta[220]
   - 0.00150462865253576 beta[221] + 0.00630220093276008 beta[222]
   + 0.00366254388463129 beta[223] - 0.00179521218136646 beta[224]
   - 0.00225088917983204 beta[225] - 0.00101949770943486 beta[226]
   + 0.00172242735541625 beta[227] + 0.00264399553613344 beta[228]
   + 2.3580761147055416e-04 beta[229] - 0.00233481856168534 beta[230]
   - 0.00157384879746227 beta[231] + 0.0126560032623869 beta[232]
   + 0.00192038664853022 beta[233] - 0.0051060683454893 beta[234]
   - 0.00156158109871503 beta[235] + 0.00326386242154306 beta[236]
   + 9.0385823121208074e-04 beta[237] - 0.0033126363498788 beta[238]
   - 0.0014169816755072 beta[239] - 0.00626795054412646 beta[240]
   - 5.85349e-05 beta[241] + 0.00312659640889335 beta[242]
   - 0.000367133 beta[243] - 0.00332733624514973 beta[244]
   - 1.6078433650030049e-04 beta[245] + 0.00391660568353709 beta[246]
   + 0.00192489151153715 beta[247] - 0.00792584235946341 beta[248]
   - 0.0016673722213698 beta[249] + 0.00319843818113667 beta[250]
   + 0.00228458721301672 beta[251] - 7.3576012361000333e-04 beta[252]
   - 0.00138097663384687 beta[253] - 4.3120587944093733e-04 beta[254]
   - 0.000247019 beta[255] + 0.0102620987485444 beta[256]
   + 0.00161613809320877 beta[257] - 0.00446166888863282 beta[258]
   - 0.00206049514381603 beta[259] + 0.00224087230388657 beta[260]
   + 0.00138183157859679 beta[261] - 0.00165758130896728 beta[262]
   - 8.4219754219297057e-04 beta[263] - 3.5460232326102459e-04 beta[264]
   - 1.03569e-05 beta[265] + 1.4562770125896456e-04 beta[266]
   - 1.1755268909723192e-04 beta[267] - 1.9777673459394357e-04 beta[268]
   + 0.000443149 beta[269] + 9.9027282377083122e-04 beta[270]
   + 1.1999016492995543e-04 beta[271] - 0.00737565517196632 beta[272]
   - 0.00136659030718356 beta[273] + 0.00322341131189831 beta[274]
   + 0.00193936695081305 beta[275] - 0.00151852479041679 beta[276]
   - 0.00200531 beta[277] - 1.35022e-05 beta[278] + 0.000954046 beta[279]
   + 0.00627297793288533 beta[280] + 0.00119836274846634 beta[281]
   - 0.0027307311390917 beta[282] - 0.00167231359315662 beta[283]
   + 0.00127119310448586 beta[284] + 0.00157873847408843 beta[285]
   - 0.00022941 beta[286] - 0.000711968 beta[287]
   + 0.0134760745568541 beta[288] - 0.00277728658388678 beta[289]
   - 0.0990824836752071 beta[290] + weighted_residual[19]
   = -0.0530100517393158
 R610: - 5.21999e-08 beta[0] - 5.91964e-09 beta[1] + 5.48759e-09 beta[2]
   + 1.78169e-08 beta[3] + 1.36647e-08 beta[4] + 7.3363e-09 beta[5]
   + 3.4252e-09 beta[6] + 1.48381e-09 beta[7] + 2.14925e-07 beta[8]
   - 5.02009e-08 beta[9] - 8.4865e-08 beta[10] - 5.08847e-08 beta[11]
   - 2.34103e-08 beta[12] - 9.70519e-09 beta[13] - 3.79172e-09 beta[14]
   - 1.42431e-09 beta[15] + 1.40924e-08 beta[16] + 1.0069e-07 beta[17]
   + 2.09133e-08 beta[18] - 1.67498e-09 beta[19] - 3.03767e-09 beta[20]
   - 1.59012e-09 beta[21] - 6.82087e-10 beta[22] - 2.72857e-10 beta[23]
   + 1.14614e-07 beta[24] + 8.5738e-07 beta[25] + 4.41424e-07 beta[26]
   + 1.79628e-07 beta[27] + 6.61803e-08 beta[28] + 2.32904e-08 beta[29]
   + 7.98445e-09 beta[30] + 2.69703e-09 beta[31] - 4.89898e-06 beta[32]
   - 1.78562e-06 beta[33] - 5.93827e-07 beta[34] - 1.9082e-07 beta[35]
   - 6.13107e-08 beta[36] - 1.97909e-08 beta[37] - 6.42212e-09 beta[38]
   - 2.09791e-09 beta[39] + 4.22668e-07 beta[40] - 1.50397e-06 beta[41]
   - 6.42278e-07 beta[42] - 2.24826e-07 beta[43] - 7.33443e-08 beta[44]
   - 2.31973e-08 beta[45] - 7.23468e-09 beta[46] - 2.26108e-09 beta[47]
   + 2.44126e-05 beta[48] + 6.61672e-06 beta[49] + 1.9575e-06 beta[50]
   + 5.82439e-07 beta[51] + 1.74449e-07 beta[52] + 5.27324e-08 beta[53]
   + 1.61621e-08 beta[54] + 5.03054e-09 beta[55] - 1.78493e-05 beta[56]
   - 2.51683e-06 beta[57] - 5.74262e-07 beta[58] - 1.5606e-07 beta[59]
   - 4.63813e-08 beta[60] - 1.44743e-08 beta[61] - 4.53819e-09 beta[62]
   - 1.3543e-09 beta[63] - 4.48817e-05 beta[64] - 9.20143e-06 beta[65]
   - 2.40223e-06 beta[66] - 6.54199e-07 beta[67] - 1.83009e-07 beta[68]
   - 5.29283e-08 beta[69] - 1.5954e-08 beta[70] - 4.98387e-09 beta[71]
   + 5.19459e-05 beta[72] + 9.7356e-06 beta[73] + 2.50726e-06 beta[74]
   + 6.96982e-07 beta[75] + 2.01421e-07 beta[76] + 5.93583e-08 beta[77]
   + 1.73205e-08 beta[78] + 4.81787e-09 beta[79] + 4.08797e-05 beta[80]
   + 3.36364e-06 beta[81] + 5.0404e-07 beta[82] + 8.78926e-08 beta[83]
   + 2.12988e-08 beta[84] + 9.16648e-09 beta[85] + 4.8361e-09 beta[86]
   + 2.32956e-09 beta[87] - 6.145e-05 beta[88] - 8.97067e-06 beta[89]
   - 2.21617e-06 beta[90] - 6.30061e-07 beta[91] - 1.90032e-07 beta[92]
   - 5.69827e-08 beta[93] - 1.57012e-08 beta[94] - 3.50986e-09 beta[95]
   + 6.08456e-08 beta[96] - 1.76967e-09 beta[97] + 2.34905e-09 beta[98]
   - 2.61905e-09 beta[99] - 2.95272e-09 beta[100] - 2.12977e-09 beta[101]
   - 1.34587e-09 beta[102] - 7.99367e-10 beta[103] + 2.76214e-08 beta[104]
   + 4.90776e-09 beta[105] + 6.251e-09 beta[106] + 1.86774e-09 beta[107]
   - 4.87404e-11 beta[108] - 5.57929e-10 beta[109] - 5.54733e-10 beta[110]
   - 4.26061e-10 beta[111] - 5.13393e-08 beta[112] + 8.7091e-09 beta[113]
   + 1.06571e-08 beta[114] + 8.96978e-09 beta[115] + 5.79028e-09 beta[116]
   + 3.41548e-09 beta[117] + 1.95206e-09 beta[118] + 1.0919e-09 beta[119]
   - 1.58749e-07 beta[120] - 3.42625e-08 beta[121] - 1.63492e-08 beta[122]
   - 5.0878e-09 beta[123] - 9.88738e-10 beta[124] + 2.4351e-10 beta[125]
   + 4.93159e-10 beta[126] + 4.41771e-10 beta[127] - 3.05431e-08 beta[128]
   - 4.93212e-08 beta[129] - 3.84535e-08 beta[130] - 2.35857e-08 beta[131]
   - 1.32944e-08 beta[132] - 7.27045e-09 beta[133] - 3.92613e-09 beta[134]
   - 2.09239e-09 beta[135] + 5.33463e-07 beta[136] + 1.18634e-07 beta[137]
   + 4.57154e-08 beta[138] + 1.7495e-08 beta[139] + 6.81453e-09 beta[140]
   + 2.60328e-09 beta[141] + 9.19757e-10 beta[142] + 2.8168e-10 beta[143]
   + 3.33527e-07 beta[144] + 1.22878e-07 beta[145] + 7.2022e-08 beta[146]
   + 3.87074e-08 beta[147] + 2.0431e-08 beta[148] + 1.06643e-08 beta[149]
   + 5.49388e-09 beta[150] + 2.79123e-09 beta[151] - 1.25977e-06 beta[152]
   - 2.64412e-07 beta[153] - 9.74946e-08 beta[154] - 4.09057e-08 beta[155]
   - 1.80336e-08 beta[156] - 8.08584e-09 beta[157] - 3.68453e-09 beta[158]
   - 1.74805e-09 beta[159] - 9.30328e-07 beta[160] - 1.81408e-07 beta[161]
   - 8.06344e-08 beta[162] - 3.84746e-08 beta[163] - 1.89139e-08 beta[164]
   - 9.18816e-09 beta[165] - 4.34064e-09 beta[166] - 2.01648e-09 beta[167]
   + 2.24343e-06 beta[168] + 3.95141e-07 beta[169] + 1.3502e-07 beta[170]
   + 5.68774e-08 beta[171] + 2.5279e-08 beta[172] + 1.16397e-08 beta[173]
   + 5.69167e-09 beta[174] + 3.0193e-09 beta[175] + 1.86072e-06 beta[176]
   + 2.10957e-07 beta[177] + 5.78859e-08 beta[178] + 2.03661e-08 beta[179]
   + 7.20059e-09 beta[180] + 1.92563e-09 beta[181] + 8.16965e-11 beta[182]
   - 2.83848e-10 beta[183] - 3.24525e-06 beta[184] - 4.06948e-07 beta[185]
   - 1.11037e-07 beta[186] - 4.31869e-08 beta[187] - 1.89591e-08 beta[188]
   - 9.69566e-09 beta[189] - 5.88644e-09 beta[190] - 3.92576e-09 beta[191]
   - 2.25827e-08 beta[192] + 2.08819e-09 beta[193] + 1.06447e-08 beta[194]
   - 6.27545e-09 beta[195] - 9.06518e-09 beta[196] + 1.4143e-08 beta[197]
   + 1.46924e-08 beta[198] - 2.35175e-08 beta[199] + 3.57606e-09 beta[200]
   - 3.27382e-09 beta[201] - 7.64634e-10 beta[202] + 7.46987e-09 beta[203]
   + 9.57305e-10 beta[204] - 1.37546e-08 beta[205] - 5.9629e-09 beta[206]
   + 1.95982e-08 beta[207] - 1.06421e-08 beta[208] + 2.9686e-09 beta[209]
   + 4.1787e-09 beta[210] - 6.23644e-09 beta[211] - 3.36093e-09 beta[212]
   + 9.6024e-09 beta[213] + 6.47762e-09 beta[214] - 9.80142e-09 beta[215]
   + 1.67607e-08 beta[216] + 1.29218e-09 beta[217] - 7.3798e-09 beta[218]
   - 5.56263e-10 beta[219] + 6.13502e-09 beta[220] + 3.65236e-10 beta[221]
   - 8.66076e-09 beta[222] - 4.65469e-09 beta[223] - 1.67934e-08 beta[224]
   - 7.48965e-09 beta[225] + 7.25403e-09 beta[226] + 9.71112e-09 beta[227]
   - 5.49779e-09 beta[228] - 1.09424e-08 beta[229] + 7.26015e-09 beta[230]
   + 1.44478e-08 beta[231] - 3.89126e-08 beta[232] + 6.0782e-09 beta[233]
   + 2.1021e-08 beta[234] - 7.81109e-09 beta[235] - 1.80805e-08 beta[236]
   + 6.78252e-09 beta[237] + 1.70048e-08 beta[238] - 2.70397e-09 beta[239]
   + 1.69471e-07 beta[240] + 7.28744e-09 beta[241] - 8.56944e-08 beta[242]
   - 9.92375e-09 beta[243] + 6.89419e-08 beta[244] + 1.37256e-08 beta[245]
   - 6.72329e-08 beta[246] - 2.48723e-08 beta[247] + 8.17162e-09 beta[248]
   - 1.41677e-08 beta[249] - 6.81596e-09 beta[250] + 1.55187e-08 beta[251]
   + 3.16791e-09 beta[252] - 1.28766e-08 beta[253] + 1.01722e-08 beta[254]
   + 1.62281e-08 beta[255] - 4.95369e-07 beta[256] - 2.15428e-09 beta[257]
   + 2.56035e-07 beta[258] + 1.22854e-08 beta[259] - 1.99403e-07 beta[260]
   - 3.0069e-08 beta[261] + 1.6327e-07 beta[262] + 4.85363e-08 beta[263]
   + 1.52329e-07 beta[264] + 1.52258e-08 beta[265] - 8.46465e-08 beta[266]
   - 2.78668e-08 beta[267] + 7.65197e-08 beta[268] + 4.58404e-08 beta[269]
   - 7.63103e-08 beta[270] - 7.08444e-08 beta[271] + 1.0487e-06 beta[272]
   + 3.01482e-09 beta[273] - 5.27013e-07 beta[274] - 1.10524e-08 beta[275]
   + 3.9242e-07 beta[276] + 2.13456e-08 beta[277] - 3.11889e-07 beta[278]
   - 2.38019e-08 beta[279] - 5.95038e-07 beta[280] - 1.20603e-08 beta[281]
   + 3.13857e-07 beta[282] + 3.4192e-08 beta[283] - 2.50261e-07 beta[284]
   - 6.75907e-08 beta[285] + 2.04865e-07 beta[286] + 9.78735e-08 beta[287]
   <= 2.3904e-05
 R611: - 5.21999e-08 beta[0] - 5.91964e-09 beta[1] + 5.48759e-09 beta[2]
   + 1.78169e-08 beta[3] + 1.36647e-08 beta[4] + 7.3363e-09 beta[5]
   + 3.4252e-09 beta[6] + 1.48381e-09 beta[7] + 2.14925e-07 beta[8]
   - 5.02009e-08 beta[9] - 8.4865e-08 beta[10] - 5.08847e-08 beta[11]
   - 2.34103e-08 beta[12] - 9.70519e-09 beta[13] - 3.79172e-09 beta[14]
   - 1.42431e-09 beta[15] + 1.40924e-08 beta[16] + 1.0069e-07 beta[17]
   + 2.09133e-08 beta[18] - 1.67498e-09 beta[19] - 3.03767e-09 beta[20]
   - 1.59012e-09 beta[21] - 6.82087e-10 beta[22] - 2.72857e-10 beta[23]
   + 1.14614e-07 beta[24] + 8.5738e-07 beta[25] + 4.41424e-07 beta[26]
   + 1.79628e-07 beta[27] + 6.61803e-08 beta[28] + 2.32904e-08 beta[29]
   + 7.98445e-09 beta[30] + 2.69703e-09 beta[31] - 4.89898e-06 beta[32]
   - 1.78562e-06 beta[33] - 5.93827e-07 beta[34] - 1.9082e-07 beta[35]
   - 6.13107e-08 beta[36] - 1.97909e-08 beta[37] - 6.42212e-09 beta[38]
   - 2.09791e-09 beta[39] + 4.22668e-07 beta[40] - 1.50397e-06 beta[41]
   - 6.42278e-07 beta[42] - 2.24826e-07 beta[43] - 7.33443e-08 beta[44]
   - 2.31973e-08 beta[45] - 7.23468e-09 beta[46] - 2.26108e-09 beta[47]
   + 2.44126e-05 beta[48] + 6.61672e-06 beta[49] + 1.9575e-06 beta[50]
   + 5.82439e-07 beta[51] + 1.74449e-07 beta[52] + 5.27324e-08 beta[53]
   + 1.61621e-08 beta[54] + 5.03054e-09 beta[55] - 1.78493e-05 beta[56]
   - 2.51683e-06 beta[57] - 5.74262e-07 beta[58] - 1.5606e-07 beta[59]
   - 4.63813e-08 beta[60] - 1.44743e-08 beta[61] - 4.53819e-09 beta[62]
   - 1.3543e-09 beta[63] - 4.48817e-05 beta[64] - 9.20143e-06 beta[65]
   - 2.40223e-06 beta[66] - 6.54199e-07 beta[67] - 1.83009e-07 beta[68]
   - 5.29283e-08 beta[69] - 1.5954e-08 beta[70] - 4.98387e-09 beta[71]
   + 5.19459e-05 beta[72] + 9.7356e-06 beta[73] + 2.50726e-06 beta[74]
   + 6.96982e-07 beta[75] + 2.01421e-07 beta[76] + 5.93583e-08 beta[77]
   + 1.73205e-08 beta[78] + 4.81787e-09 beta[79] + 4.08797e-05 beta[80]
   + 3.36364e-06 beta[81] + 5.0404e-07 beta[82] + 8.78926e-08 beta[83]
   + 2.12988e-08 beta[84] + 9.16648e-09 beta[85] + 4.8361e-09 beta[86]
   + 2.32956e-09 beta[87] - 6.145e-05 beta[88] - 8.97067e-06 beta[89]
   - 2.21617e-06 beta[90] - 6.30061e-07 beta[91] - 1.90032e-07 beta[92]
   - 5.69827e-08 beta[93] - 1.57012e-08 beta[94] - 3.50986e-09 beta[95]
   + 6.08456e-08 beta[96] - 1.76967e-09 beta[97] + 2.34905e-09 beta[98]
   - 2.61905e-09 beta[99] - 2.95272e-09 beta[100] - 2.12977e-09 beta[101]
   - 1.34587e-09 beta[102] - 7.99367e-10 beta[103] + 2.76214e-08 beta[104]
   + 4.90776e-09 beta[105] + 6.251e-09 beta[106] + 1.86774e-09 beta[107]
   - 4.87404e-11 beta[108] - 5.57929e-10 beta[109] - 5.54733e-10 beta[110]
   - 4.26061e-10 beta[111] - 5.13393e-08 beta[112] + 8.7091e-09 beta[113]
   + 1.06571e-08 beta[114] + 8.96978e-09 beta[115] + 5.79028e-09 beta[116]
   + 3.41548e-09 beta[117] + 1.95206e-09 beta[118] + 1.0919e-09 beta[119]
   - 1.58749e-07 beta[120] - 3.42625e-08 beta[121] - 1.63492e-08 beta[122]
   - 5.0878e-09 beta[123] - 9.88738e-10 beta[124] + 2.4351e-10 beta[125]
   + 4.93159e-10 beta[126] + 4.41771e-10 beta[127] - 3.05431e-08 beta[128]
   - 4.93212e-08 beta[129] - 3.84535e-08 beta[130] - 2.35857e-08 beta[131]
   - 1.32944e-08 beta[132] - 7.27045e-09 beta[133] - 3.92613e-09 beta[134]
   - 2.09239e-09 beta[135] + 5.33463e-07 beta[136] + 1.18634e-07 beta[137]
   + 4.57154e-08 beta[138] + 1.7495e-08 beta[139] + 6.81453e-09 beta[140]
   + 2.60328e-09 beta[141] + 9.19757e-10 beta[142] + 2.8168e-10 beta[143]
   + 3.33527e-07 beta[144] + 1.22878e-07 beta[145] + 7.2022e-08 beta[146]
   + 3.87074e-08 beta[147] + 2.0431e-08 beta[148] + 1.06643e-08 beta[149]
   + 5.49388e-09 beta[150] + 2.79123e-09 beta[151] - 1.25977e-06 beta[152]
   - 2.64412e-07 beta[153] - 9.74946e-08 beta[154] - 4.09057e-08 beta[155]
   - 1.80336e-08 beta[156] - 8.08584e-09 beta[157] - 3.68453e-09 beta[158]
   - 1.74805e-09 beta[159] - 9.30328e-07 beta[160] - 1.81408e-07 beta[161]
   - 8.06344e-08 beta[162] - 3.84746e-08 beta[163] - 1.89139e-08 beta[164]
   - 9.18816e-09 beta[165] - 4.34064e-09 beta[166] - 2.01648e-09 beta[167]
   + 2.24343e-06 beta[168] + 3.95141e-07 beta[169] + 1.3502e-07 beta[170]
   + 5.68774e-08 beta[171] + 2.5279e-08 beta[172] + 1.16397e-08 beta[173]
   + 5.69167e-09 beta[174] + 3.0193e-09 beta[175] + 1.86072e-06 beta[176]
   + 2.10957e-07 beta[177] + 5.78859e-08 beta[178] + 2.03661e-08 beta[179]
   + 7.20059e-09 beta[180] + 1.92563e-09 beta[181] + 8.16965e-11 beta[182]
   - 2.83848e-10 beta[183] - 3.24525e-06 beta[184] - 4.06948e-07 beta[185]
   - 1.11037e-07 beta[186] - 4.31869e-08 beta[187] - 1.89591e-08 beta[188]
   - 9.69566e-09 beta[189] - 5.88644e-09 beta[190] - 3.92576e-09 beta[191]
   - 2.25827e-08 beta[192] + 2.08819e-09 beta[193] + 1.06447e-08 beta[194]
   - 6.27545e-09 beta[195] - 9.06518e-09 beta[196] + 1.4143e-08 beta[197]
   + 1.46924e-08 beta[198] - 2.35175e-08 beta[199] + 3.57606e-09 beta[200]
   - 3.27382e-09 beta[201] - 7.64634e-10 beta[202] + 7.46987e-09 beta[203]
   + 9.57305e-10 beta[204] - 1.37546e-08 beta[205] - 5.9629e-09 beta[206]
   + 1.95982e-08 beta[207] - 1.06421e-08 beta[208] + 2.9686e-09 beta[209]
   + 4.1787e-09 beta[210] - 6.23644e-09 beta[211] - 3.36093e-09 beta[212]
   + 9.6024e-09 beta[213] + 6.47762e-09 beta[214] - 9.80142e-09 beta[215]
   + 1.67607e-08 beta[216] + 1.29218e-09 beta[217] - 7.3798e-09 beta[218]
   - 5.56263e-10 beta[219] + 6.13502e-09 beta[220] + 3.65236e-10 beta[221]
   - 8.66076e-09 beta[222] - 4.65469e-09 beta[223] - 1.67934e-08 beta[224]
   - 7.48965e-09 beta[225] + 7.25403e-09 beta[226] + 9.71112e-09 beta[227]
   - 5.49779e-09 beta[228] - 1.09424e-08 beta[229] + 7.26015e-09 beta[230]
   + 1.44478e-08 beta[231] - 3.89126e-08 beta[232] + 6.0782e-09 beta[233]
   + 2.1021e-08 beta[234] - 7.81109e-09 beta[235] - 1.80805e-08 beta[236]
   + 6.78252e-09 beta[237] + 1.70048e-08 beta[238] - 2.70397e-09 beta[239]
   + 1.69471e-07 beta[240] + 7.28744e-09 beta[241] - 8.56944e-08 beta[242]
   - 9.92375e-09 beta[243] + 6.89419e-08 beta[244] + 1.37256e-08 beta[245]
   - 6.72329e-08 beta[246] - 2.48723e-08 beta[247] + 8.17162e-09 beta[248]
   - 1.41677e-08 beta[249] - 6.81596e-09 beta[250] + 1.55187e-08 beta[251]
   + 3.16791e-09 beta[252] - 1.28766e-08 beta[253] + 1.01722e-08 beta[254]
   + 1.62281e-08 beta[255] - 4.95369e-07 beta[256] - 2.15428e-09 beta[257]
   + 2.56035e-07 beta[258] + 1.22854e-08 beta[259] - 1.99403e-07 beta[260]
   - 3.0069e-08 beta[261] + 1.6327e-07 beta[262] + 4.85363e-08 beta[263]
   + 1.52329e-07 beta[264] + 1.52258e-08 beta[265] - 8.46465e-08 beta[266]
   - 2.78668e-08 beta[267] + 7.65197e-08 beta[268] + 4.58404e-08 beta[269]
   - 7.63103e-08 beta[270] - 7.08444e-08 beta[271] + 1.0487e-06 beta[272]
   + 3.01482e-09 beta[273] - 5.27013e-07 beta[274] - 1.10524e-08 beta[275]
   + 3.9242e-07 beta[276] + 2.13456e-08 beta[277] - 3.11889e-07 beta[278]
   - 2.38019e-08 beta[279] - 5.95038e-07 beta[280] - 1.20603e-08 beta[281]
   + 3.13857e-07 beta[282] + 3.4192e-08 beta[283] - 2.50261e-07 beta[284]
   - 6.75907e-08 beta[285] + 2.04865e-07 beta[286] + 9.78735e-08 beta[287]
   >= -2.3904e-05
 R612: 1.10884e-07 beta[0] + 9.24536e-08 beta[1] - 1.7748e-08 beta[2]
   - 4.71678e-08 beta[3] - 2.50128e-08 beta[4] - 9.53708e-09 beta[5]
   - 3.19033e-09 beta[6] - 1.02762e-09 beta[7] - 7.21838e-08 beta[8]
   + 1.42101e-07 beta[9] + 1.18741e-07 beta[10] + 3.94838e-08 beta[11]
   + 1.07919e-08 beta[12] + 2.61182e-09 beta[13] + 4.81958e-10 beta[14]
   + 3.57533e-11 beta[15] - 7.18474e-07 beta[16] - 3.2796e-08 beta[17]
   + 7.20577e-08 beta[18] + 4.79745e-08 beta[19] + 1.95469e-08 beta[20]
   + 6.35479e-09 beta[21] + 1.59309e-09 beta[22] + 4.67618e-11 beta[23]
   - 1.51166e-06 beta[24] - 1.09562e-06 beta[25] - 4.22418e-07 beta[26]
   - 1.25965e-07 beta[27] - 3.35299e-08 beta[28] - 7.8315e-09 beta[29]
   - 1.13325e-09 beta[30] + 4.11106e-10 beta[31] + 5.92557e-06 beta[32]
   + 9.84723e-07 beta[33] + 1.58133e-07 beta[34] + 2.00418e-08 beta[35]
   + 2.93412e-09 beta[36] + 2.14703e-09 beta[37] + 2.42592e-09 beta[38]
   + 2.34244e-09 beta[39] + 3.2888e-06 beta[40] + 2.21766e-06 beta[41]
   + 6.83346e-07 beta[42] + 1.80235e-07 beta[43] + 3.86398e-08 beta[44]
   + 2.78606e-09 beta[45] - 4.74357e-09 beta[46] - 5.24117e-09 beta[47]
   - 2.12889e-05 beta[48] - 3.5341e-06 beta[49] - 7.83069e-07 beta[50]
   - 1.82818e-07 beta[51] - 4.55163e-08 beta[52] - 1.32364e-08 beta[53]
   - 5.48667e-09 beta[54] - 3.43031e-09 beta[55] + 4.07929e-06 beta[56]
   - 1.2059e-06 beta[57] - 3.09962e-07 beta[58] - 4.24487e-08 beta[59]
   + 2.05881e-08 beta[60] + 2.8254e-08 beta[61] + 2.36705e-08 beta[62]
   + 1.7836e-08 beta[63] + 3.96286e-05 beta[64] + 5.20667e-06 beta[65]
   + 1.09302e-06 beta[66] + 2.21936e-07 beta[67] + 3.07942e-08 beta[68]
   - 6.22838e-09 beta[69] - 9.51455e-09 beta[70] - 6.90144e-09 beta[71]
   - 2.05731e-05 beta[72] - 1.59834e-06 beta[73] - 5.24862e-07 beta[74]
   - 2.09014e-07 beta[75] - 1.07076e-07 beta[76] - 6.58519e-08 beta[77]
   - 4.44191e-08 beta[78] - 3.1468e-08 beta[79] - 5.24276e-05 beta[80]
   - 3.52764e-06 beta[81] - 4.04456e-07 beta[82] + 6.57114e-08 beta[83]
   + 1.10767e-07 beta[84] + 8.50719e-08 beta[85] + 5.77646e-08 beta[86]
   + 3.89878e-08 beta[87] + 3.56992e-05 beta[88] + 2.50279e-06 beta[89]
   + 6.99171e-07 beta[90] + 2.052e-07 beta[91] + 7.94742e-08 beta[92]
   + 4.26902e-08 beta[93] + 2.68104e-08 beta[94] + 1.77633e-08 beta[95]
   + 2.4231e-08 beta[96] - 7.74296e-09 beta[97] + 9.15822e-09 beta[98]
   + 6.95671e-09 beta[99] + 1.95627e-09 beta[100] - 2.46308e-10 beta[101]
   - 8.77793e-10 beta[102] - 9.53208e-10 beta[103] - 1.03984e-09 beta[104]
   - 1.24567e-08 beta[105] + 2.1465e-09 beta[106] + 4.4696e-09 beta[107]
   + 2.73906e-09 beta[108] + 1.27674e-09 beta[109] + 4.06934e-10 beta[110]
   - 7.60728e-11 beta[111] - 1.23959e-08 beta[112] - 2.00544e-08 beta[113]
   - 1.19379e-08 beta[114] - 4.66994e-09 beta[115] - 5.97756e-10 beta[116]
   + 8.39211e-10 beta[117] + 1.12182e-09 beta[118] + 1.00861e-09 beta[119]
   + 1.16854e-07 beta[120] + 1.03796e-08 beta[121] - 4.98514e-09 beta[122]
   - 5.60397e-09 beta[123] - 2.29035e-09 beta[124] + 2.90066e-11 beta[125]
   + 1.25222e-09 beta[126] + 1.81151e-09 beta[127] + 1.26256e-07 beta[128]
   + 5.82961e-08 beta[129] + 2.06912e-08 beta[130] + 4.60141e-09 beta[131]
   - 1.17676e-09 beta[132] - 2.69002e-09 beta[133] - 2.62704e-09 beta[134]
   - 2.06627e-09 beta[135] - 4.062e-07 beta[136] - 1.03931e-08 beta[137]
   + 1.39412e-09 beta[138] - 5.10072e-10 beta[139] - 4.53122e-09 beta[140]
   - 6.84925e-09 beta[141] - 7.73255e-09 beta[142] - 7.79657e-09 beta[143]
   - 4.58152e-07 beta[144] - 8.46589e-08 beta[145] - 1.52248e-08 beta[146]
   + 6.80075e-09 beta[147] + 1.21651e-08 beta[148] + 1.19262e-08 beta[149]
   + 9.96944e-09 beta[150] + 7.69676e-09 beta[151] + 8.79577e-07 beta[152]
   + 1.82501e-08 beta[153] + 9.79195e-09 beta[154] + 1.38205e-08 beta[155]
   + 1.7774e-08 beta[156] + 1.96213e-08 beta[157] + 1.98926e-08 beta[158]
   + 1.92755e-08 beta[159] + 1.02354e-06 beta[160] + 4.91628e-08 beta[161]
   - 3.95702e-08 beta[162] - 5.39917e-08 beta[163] - 5.07306e-08 beta[164]
   - 4.33292e-08 beta[165] - 3.56596e-08 beta[166] - 2.88409e-08 beta[167]
   - 1.45706e-06 beta[168] + 1.98821e-08 beta[169] + 1.22797e-08 beta[170]
   - 3.45821e-09 beta[171] - 1.34768e-08 beta[172] - 1.91964e-08 beta[173]
   - 2.20735e-08 beta[174] - 2.32061e-08 beta[175] - 1.79458e-06 beta[176]
   + 5.38893e-08 beta[177] + 1.47834e-07 beta[178] + 1.39321e-07 beta[179]
   + 1.18832e-07 beta[180] + 9.91248e-08 beta[181] + 8.23373e-08 beta[182]
   + 6.8529e-08 beta[183] + 2.03386e-06 beta[184] - 2.00496e-07 beta[185]
   - 1.42222e-07 beta[186] - 8.73786e-08 beta[187] - 5.34349e-08 beta[188]
   - 3.16212e-08 beta[189] - 1.74801e-08 beta[190] - 8.35603e-09 beta[191]
   + 3.76896e-08 beta[192] - 4.67924e-09 beta[193] - 1.20931e-08 beta[194]
   + 7.20496e-09 beta[195] - 8.23381e-09 beta[196] - 1.7247e-08 beta[197]
   + 3.36676e-08 beta[198] + 4.48087e-08 beta[199] - 1.60407e-08 beta[200]
   + 1.12473e-09 beta[201] + 3.048e-09 beta[202] - 1.16699e-09 beta[203]
   + 1.0778e-08 beta[204] + 6.29305e-09 beta[205] - 2.93661e-08 beta[206]
   - 2.29777e-08 beta[207] - 6.53592e-08 beta[208] + 3.98743e-09 beta[209]
   + 3.4824e-08 beta[210] - 7.17839e-09 beta[211] - 3.21703e-08 beta[212]
   + 8.60741e-09 beta[213] + 3.59512e-08 beta[214] - 7.36176e-09 beta[215]
   + 5.74674e-08 beta[216] - 8.34437e-09 beta[217] - 2.77412e-08 beta[218]
   + 1.34982e-08 beta[219] + 1.89707e-08 beta[220] - 1.88583e-08 beta[221]
   - 1.15635e-08 beta[222] + 2.84977e-08 beta[223] + 1.34415e-07 beta[224]
   + 9.55854e-09 beta[225] - 7.02617e-08 beta[226] - 1.41632e-08 beta[227]
   + 5.97138e-08 beta[228] + 1.84711e-08 beta[229] - 6.32195e-08 beta[230]
   - 2.81839e-08 beta[231] - 5.37269e-08 beta[232] - 9.11282e-10 beta[233]
   + 2.97045e-08 beta[234] + 4.81061e-10 beta[235] - 2.84712e-08 beta[236]
   + 9.5287e-10 beta[237] + 3.53376e-08 beta[238] - 9.05425e-10 beta[239]
   - 1.24006e-07 beta[240] - 1.69605e-08 beta[241] + 5.98207e-08 beta[242]
   + 2.49384e-08 beta[243] - 4.2254e-08 beta[244] - 3.16492e-08 beta[245]
   + 3.30244e-08 beta[246] + 4.08676e-08 beta[247] - 1.07072e-07 beta[248]
   + 3.55138e-08 beta[249] + 5.68337e-08 beta[250] - 5.02016e-08 beta[251]
   - 4.48624e-08 beta[252] + 5.88e-08 beta[253] + 3.36526e-08 beta[254]
   - 7.03716e-08 beta[255] + 5.28218e-08 beta[256] - 1.95774e-08 beta[257]
   - 2.75821e-08 beta[258] + 2.62039e-08 beta[259] + 1.96267e-08 beta[260]
   - 2.74021e-08 beta[261] - 7.18217e-09 beta[262] + 3.19807e-08 beta[263]
   + 4.83858e-07 beta[264] - 5.4608e-08 beta[265] - 2.49472e-07 beta[266]
   + 8.14316e-08 beta[267] + 1.99732e-07 beta[268] - 1.02742e-07 beta[269]
   - 1.8626e-07 beta[270] + 1.16836e-07 beta[271] - 2.96209e-07 beta[272]
   + 8.05478e-08 beta[273] + 1.57063e-07 beta[274] - 1.16561e-07 beta[275]
   - 1.28178e-07 beta[276] + 1.42582e-07 beta[277] + 1.17231e-07 beta[278]
   - 1.61658e-07 beta[279] - 1.05329e-06 beta[280] + 2.99991e-08 beta[281]
   + 5.30924e-07 beta[282] - 5.10462e-08 beta[283] - 4.13774e-07 beta[284]
   + 6.86473e-08 beta[285] + 3.71556e-07 beta[286] - 8.79053e-08 beta[287]
   <= 2.3904e-05
 R613: 1.10884e-07 beta[0] + 9.24536e-08 beta[1] - 1.7748e-08 beta[2]
   - 4.71678e-08 beta[3] - 2.50128e-08 beta[4] - 9.53708e-09 beta[5]
   - 3.19033e-09 beta[6] - 1.02762e-09 beta[7] - 7.21838e-08 beta[8]
   + 1.42101e-07 beta[9] + 1.18741e-07 beta[10] + 3.94838e-08 beta[11]
   + 1.07919e-08 beta[12] + 2.61182e-09 beta[13] + 4.81958e-10 beta[14]
   + 3.57533e-11 beta[15] - 7.18474e-07 beta[16] - 3.2796e-08 beta[17]
   + 7.20577e-08 beta[18] + 4.79745e-08 beta[19] + 1.95469e-08 beta[20]
   + 6.35479e-09 beta[21] + 1.59309e-09 beta[22] + 4.67618e-11 beta[23]
   - 1.51166e-06 beta[24] - 1.09562e-06 beta[25] - 4.22418e-07 beta[26]
   - 1.25965e-07 beta[27] - 3.35299e-08 beta[28] - 7.8315e-09 beta[29]
   - 1.13325e-09 beta[30] + 4.11106e-10 beta[31] + 5.92557e-06 beta[32]
   + 9.84723e-07 beta[33] + 1.58133e-07 beta[34] + 2.00418e-08 beta[35]
   + 2.93412e-09 beta[36] + 2.14703e-09 beta[37] + 2.42592e-09 beta[38]
   + 2.34244e-09 beta[39] + 3.2888e-06 beta[40] + 2.21766e-06 beta[41]
   + 6.83346e-07 beta[42] + 1.80235e-07 beta[43] + 3.86398e-08 beta[44]
   + 2.78606e-09 beta[45] - 4.74357e-09 beta[46] - 5.24117e-09 beta[47]
   - 2.12889e-05 beta[48] - 3.5341e-06 beta[49] - 7.83069e-07 beta[50]
   - 1.82818e-07 beta[51] - 4.55163e-08 beta[52] - 1.32364e-08 beta[53]
   - 5.48667e-09 beta[54] - 3.43031e-09 beta[55] + 4.07929e-06 beta[56]
   - 1.2059e-06 beta[57] - 3.09962e-07 beta[58] - 4.24487e-08 beta[59]
   + 2.05881e-08 beta[60] + 2.8254e-08 beta[61] + 2.36705e-08 beta[62]
   + 1.7836e-08 beta[63] + 3.96286e-05 beta[64] + 5.20667e-06 beta[65]
   + 1.09302e-06 beta[66] + 2.21936e-07 beta[67] + 3.07942e-08 beta[68]
   - 6.22838e-09 beta[69] - 9.51455e-09 beta[70] - 6.90144e-09 beta[71]
   - 2.05731e-05 beta[72] - 1.59834e-06 beta[73] - 5.24862e-07 beta[74]
   - 2.09014e-07 beta[75] - 1.07076e-07 beta[76] - 6.58519e-08 beta[77]
   - 4.44191e-08 beta[78] - 3.1468e-08 beta[79] - 5.24276e-05 beta[80]
   - 3.52764e-06 beta[81] - 4.04456e-07 beta[82] + 6.57114e-08 beta[83]
   + 1.10767e-07 beta[84] + 8.50719e-08 beta[85] + 5.77646e-08 beta[86]
   + 3.89878e-08 beta[87] + 3.56992e-05 beta[88] + 2.50279e-06 beta[89]
   + 6.99171e-07 beta[90] + 2.052e-07 beta[91] + 7.94742e-08 beta[92]
   + 4.26902e-08 beta[93] + 2.68104e-08 beta[94] + 1.77633e-08 beta[95]
   + 2.4231e-08 beta[96] - 7.74296e-09 beta[97] + 9.15822e-09 beta[98]
   + 6.95671e-09 beta[99] + 1.95627e-09 beta[100] - 2.46308e-10 beta[101]
   - 8.77793e-10 beta[102] - 9.53208e-10 beta[103] - 1.03984e-09 beta[104]
   - 1.24567e-08 beta[105] + 2.1465e-09 beta[106] + 4.4696e-09 beta[107]
   + 2.73906e-09 beta[108] + 1.27674e-09 beta[109] + 4.06934e-10 beta[110]
   - 7.60728e-11 beta[111] - 1.23959e-08 beta[112] - 2.00544e-08 beta[113]
   - 1.19379e-08 beta[114] - 4.66994e-09 beta[115] - 5.97756e-10 beta[116]
   + 8.39211e-10 beta[117] + 1.12182e-09 beta[118] + 1.00861e-09 beta[119]
   + 1.16854e-07 beta[120] + 1.03796e-08 beta[121] - 4.98514e-09 beta[122]
   - 5.60397e-09 beta[123] - 2.29035e-09 beta[124] + 2.90066e-11 beta[125]
   + 1.25222e-09 beta[126] + 1.81151e-09 beta[127] + 1.26256e-07 beta[128]
   + 5.82961e-08 beta[129] + 2.06912e-08 beta[130] + 4.60141e-09 beta[131]
   - 1.17676e-09 beta[132] - 2.69002e-09 beta[133] - 2.62704e-09 beta[134]
   - 2.06627e-09 beta[135] - 4.062e-07 beta[136] - 1.03931e-08 beta[137]
   + 1.39412e-09 beta[138] - 5.10072e-10 beta[139] - 4.53122e-09 beta[140]
   - 6.84925e-09 beta[141] - 7.73255e-09 beta[142] - 7.79657e-09 beta[143]
   - 4.58152e-07 beta[144] - 8.46589e-08 beta[145] - 1.52248e-08 beta[146]
   + 6.80075e-09 beta[147] + 1.21651e-08 beta[148] + 1.19262e-08 beta[149]
   + 9.96944e-09 beta[150] + 7.69676e-09 beta[151] + 8.79577e-07 beta[152]
   + 1.82501e-08 beta[153] + 9.79195e-09 beta[154] + 1.38205e-08 beta[155]
   + 1.7774e-08 beta[156] + 1.96213e-08 beta[157] + 1.98926e-08 beta[158]
   + 1.92755e-08 beta[159] + 1.02354e-06 beta[160] + 4.91628e-08 beta[161]
   - 3.95702e-08 beta[162] - 5.39917e-08 beta[163] - 5.07306e-08 beta[164]
   - 4.33292e-08 beta[165] - 3.56596e-08 beta[166] - 2.88409e-08 beta[167]
   - 1.45706e-06 beta[168] + 1.98821e-08 beta[169] + 1.22797e-08 beta[170]
   - 3.45821e-09 beta[171] - 1.34768e-08 beta[172] - 1.91964e-08 beta[173]
   - 2.20735e-08 beta[174] - 2.32061e-08 beta[175] - 1.79458e-06 beta[176]
   + 5.38893e-08 beta[177] + 1.47834e-07 beta[178] + 1.39321e-07 beta[179]
   + 1.18832e-07 beta[180] + 9.91248e-08 beta[181] + 8.23373e-08 beta[182]
   + 6.8529e-08 beta[183] + 2.03386e-06 beta[184] - 2.00496e-07 beta[185]
   - 1.42222e-07 beta[186] - 8.73786e-08 beta[187] - 5.34349e-08 beta[188]
   - 3.16212e-08 beta[189] - 1.74801e-08 beta[190] - 8.35603e-09 beta[191]
   + 3.76896e-08 beta[192] - 4.67924e-09 beta[193] - 1.20931e-08 beta[194]
   + 7.20496e-09 beta[195] - 8.23381e-09 beta[196] - 1.7247e-08 beta[197]
   + 3.36676e-08 beta[198] + 4.48087e-08 beta[199] - 1.60407e-08 beta[200]
   + 1.12473e-09 beta[201] + 3.048e-09 beta[202] - 1.16699e-09 beta[203]
   + 1.0778e-08 beta[204] + 6.29305e-09 beta[205] - 2.93661e-08 beta[206]
   - 2.29777e-08 beta[207] - 6.53592e-08 beta[208] + 3.98743e-09 beta[209]
   + 3.4824e-08 beta[210] - 7.17839e-09 beta[211] - 3.21703e-08 beta[212]
   + 8.60741e-09 beta[213] + 3.59512e-08 beta[214] - 7.36176e-09 beta[215]
   + 5.74674e-08 beta[216] - 8.34437e-09 beta[217] - 2.77412e-08 beta[218]
   + 1.34982e-08 beta[219] + 1.89707e-08 beta[220] - 1.88583e-08 beta[221]
   - 1.15635e-08 beta[222] + 2.84977e-08 beta[223] + 1.34415e-07 beta[224]
   + 9.55854e-09 beta[225] - 7.02617e-08 beta[226] - 1.41632e-08 beta[227]
   + 5.97138e-08 beta[228] + 1.84711e-08 beta[229] - 6.32195e-08 beta[230]
   - 2.81839e-08 beta[231] - 5.37269e-08 beta[232] - 9.11282e-10 beta[233]
   + 2.97045e-08 beta[234] + 4.81061e-10 beta[235] - 2.84712e-08 beta[236]
   + 9.5287e-10 beta[237] + 3.53376e-08 beta[238] - 9.05425e-10 beta[239]
   - 1.24006e-07 beta[240] - 1.69605e-08 beta[241] + 5.98207e-08 beta[242]
   + 2.49384e-08 beta[243] - 4.2254e-08 beta[244] - 3.16492e-08 beta[245]
   + 3.30244e-08 beta[246] + 4.08676e-08 beta[247] - 1.07072e-07 beta[248]
   + 3.55138e-08 beta[249] + 5.68337e-08 beta[250] - 5.02016e-08 beta[251]
   - 4.48624e-08 beta[252] + 5.88e-08 beta[253] + 3.36526e-08 beta[254]
   - 7.03716e-08 beta[255] + 5.28218e-08 beta[256] - 1.95774e-08 beta[257]
   - 2.75821e-08 beta[258] + 2.62039e-08 beta[259] + 1.96267e-08 beta[260]
   - 2.74021e-08 beta[261] - 7.18217e-09 beta[262] + 3.19807e-08 beta[263]
   + 4.83858e-07 beta[264] - 5.4608e-08 beta[265] - 2.49472e-07 beta[266]
   + 8.14316e-08 beta[267] + 1.99732e-07 beta[268] - 1.02742e-07 beta[269]
   - 1.8626e-07 beta[270] + 1.16836e-07 beta[271] - 2.96209e-07 beta[272]
   + 8.05478e-08 beta[273] + 1.57063e-07 beta[274] - 1.16561e-07 beta[275]
   - 1.28178e-07 beta[276] + 1.42582e-07 beta[277] + 1.17231e-07 beta[278]
   - 1.61658e-07 beta[279] - 1.05329e-06 beta[280] + 2.99991e-08 beta[281]
   + 5.30924e-07 beta[282] - 5.10462e-08 beta[283] - 4.13774e-07 beta[284]
   + 6.86473e-08 beta[285] + 3.71556e-07 beta[286] - 8.79053e-08 beta[287]
   >= -2.3904e-05
 R614: - 2.12455e-08 beta[0] - 4.77673e-08 beta[1] + 5.30435e-08 beta[2]
   + 4.40221e-08 beta[3] + 2.03827e-08 beta[4] + 8.33501e-09 beta[5]
   + 3.39678e-09 beta[6] + 1.39612e-09 beta[7] + 9.45447e-08 beta[8]
   - 1.77032e-07 beta[9] - 8.56581e-08 beta[10] - 3.12778e-08 beta[11]
   - 1.27476e-08 beta[12] - 5.49851e-09 beta[13] - 2.34079e-09 beta[14]
   - 9.66994e-10 beta[15] + 1.77327e-07 beta[16] - 8.13315e-08 beta[17]
   - 9.84373e-08 beta[18] - 4.61433e-08 beta[19] - 1.65326e-08 beta[20]
   - 5.34886e-09 beta[21] - 1.68792e-09 beta[22] - 5.38625e-10 beta[23]
   + 1.7814e-06 beta[24] + 9.30757e-07 beta[25] + 3.66267e-07 beta[26]
   + 1.27089e-07 beta[27] + 4.44335e-08 beta[28] + 1.57732e-08 beta[29]
   + 5.62933e-09 beta[30] + 2.01478e-09 beta[31] - 1.91583e-06 beta[32]
   - 4.70146e-07 beta[33] - 8.84741e-08 beta[34] - 2.89425e-08 beta[35]
   - 1.29439e-08 beta[36] - 5.8792e-09 beta[37] - 2.51817e-09 beta[38]
   - 1.01069e-09 beta[39] - 6.17563e-06 beta[40] - 2.2379e-06 beta[41]
   - 7.33361e-07 beta[42] - 2.23854e-07 beta[43] - 6.82688e-08 beta[44]
   - 2.11547e-08 beta[45] - 6.70647e-09 beta[46] - 2.18741e-09 beta[47]
   + 1.10351e-05 beta[48] + 3.00134e-06 beta[49] + 8.38755e-07 beta[50]
   + 2.6054e-07 beta[51] + 8.53805e-08 beta[52] + 2.87109e-08 beta[53]
   + 9.73585e-09 beta[54] + 3.26632e-09 beta[55] + 4.7535e-06 beta[56]
   + 1.57803e-06 beta[57] + 4.14211e-07 beta[58] + 9.26528e-08 beta[59]
   + 1.87833e-08 beta[60] + 3.70033e-09 beta[61] + 9.11715e-10 beta[62]
   + 3.51871e-10 beta[63] - 2.45013e-05 beta[64] - 5.3653e-06 beta[65]
   - 1.39401e-06 beta[66] - 3.98191e-07 beta[67] - 1.21539e-07 beta[68]
   - 3.85698e-08 beta[69] - 1.23057e-08 beta[70] - 3.78474e-09 beta[71]
   + 7.62023e-06 beta[72] + 1.65928e-06 beta[73] + 5.88562e-07 beta[74]
   + 2.16791e-07 beta[75] + 7.39734e-08 beta[76] + 2.24533e-08 beta[77]
   + 5.79597e-09 beta[78] + 1.16063e-09 beta[79] + 2.95786e-05 beta[80]
   + 3.51026e-06 beta[81] + 7.5989e-07 beta[82] + 2.10459e-07 beta[83]
   + 7.06083e-08 beta[84] + 2.46439e-08 beta[85] + 7.72593e-09 beta[86]
   + 1.80495e-09 beta[87] - 1.33512e-05 beta[88] - 2.36967e-06 beta[89]
   - 8.48421e-07 beta[90] - 2.90339e-07 beta[91] - 8.15204e-08 beta[92]
   - 1.48544e-08 beta[93] + 1.14365e-09 beta[94] + 2.70237e-09 beta[95]
   + 1.38889e-08 beta[96] - 2.38007e-09 beta[97] - 8.21451e-09 beta[98]
   - 4.63934e-09 beta[99] - 1.67802e-09 beta[100] - 6.49167e-10 beta[101]
   - 3.45926e-10 beta[102] - 2.19978e-10 beta[103] - 2.92148e-09 beta[104]
   + 7.84312e-09 beta[105] - 2.71043e-09 beta[106] - 2.9232e-09 beta[107]
   - 1.87276e-09 beta[108] - 1.16207e-09 beta[109] - 7.34019e-10 beta[110]
   - 4.67401e-10 beta[111] + 1.15276e-08 beta[112] + 2.12071e-08 beta[113]
   + 1.22544e-08 beta[114] + 6.40835e-09 beta[115] + 3.07026e-09 beta[116]
   + 1.56859e-09 beta[117] + 8.66295e-10 beta[118] + 4.90105e-10 beta[119]
   + 1.34509e-08 beta[120] - 9.36318e-09 beta[121] + 4.96256e-09 beta[122]
   + 5.11213e-09 beta[123] + 3.17024e-09 beta[124] + 1.89026e-09 beta[125]
   + 1.14119e-09 beta[126] + 6.86014e-10 beta[127] - 6.22886e-08 beta[128]
   - 6.4264e-08 beta[129] - 3.07211e-08 beta[130] - 1.52125e-08 beta[131]
   - 7.7544e-09 beta[132] - 4.06544e-09 beta[133] - 2.16712e-09 beta[134]
   - 1.16033e-09 beta[135] + 5.62655e-08 beta[136] + 2.1201e-08 beta[137]
   - 7.12822e-10 beta[138] - 3.49145e-09 beta[139] - 2.31719e-09 beta[140]
   - 1.37367e-09 beta[141] - 7.90301e-10 beta[142] - 4.26401e-10 beta[143]
   + 2.18101e-07 beta[144] + 1.2749e-07 beta[145] + 5.80181e-08 beta[146]
   + 2.71561e-08 beta[147] + 1.34626e-08 beta[148] + 6.79454e-09 beta[149]
   + 3.45698e-09 beta[150] + 1.79114e-09 beta[151] - 3.51103e-07 beta[152]
   - 6.07468e-08 beta[153] - 1.64204e-08 beta[154] - 5.31052e-09 beta[155]
   - 2.41852e-09 beta[156] - 1.34759e-09 beta[157] - 8.75975e-10 beta[158]
   - 6.16355e-10 beta[159] - 6.02862e-07 beta[160] - 1.77515e-07 beta[161]
   - 7.42505e-08 beta[162] - 3.16447e-08 beta[163] - 1.44497e-08 beta[164]
   - 6.77788e-09 beta[165] - 3.31687e-09 beta[166] - 1.77061e-09 beta[167]
   + 9.28113e-07 beta[168] + 1.07561e-07 beta[169] + 3.30433e-08 beta[170]
   + 1.48035e-08 beta[171] + 8.25494e-09 beta[172] + 5.21653e-09 beta[173]
   + 3.4457e-09 beta[174] + 2.21659e-09 beta[175] + 1.38371e-06 beta[176]
   + 1.88441e-07 beta[177] + 6.34048e-08 beta[178] + 2.11611e-08 beta[179]
   + 7.52552e-09 beta[180] + 3.15301e-09 beta[181] + 1.92634e-09 beta[182]
   + 1.5754e-09 beta[183] - 1.73161e-06 beta[184] - 1.16324e-07 beta[185]
   - 2.86613e-08 beta[186] - 1.80558e-08 beta[187] - 1.38372e-08 beta[188]
   - 1.04074e-08 beta[189] - 7.13528e-09 beta[190] - 4.34653e-09 beta[191]
   - 6.19997e-09 beta[192] - 3.02127e-09 beta[193] - 1.00528e-09 beta[194]
   + 5.02974e-09 beta[195] + 1.0878e-08 beta[196] - 3.89514e-09 beta[197]
   - 2.56736e-08 beta[198] - 5.13347e-09 beta[199] + 1.38331e-09 beta[200]
   + 1.49013e-09 beta[201] + 2.42044e-09 beta[202] - 2.68206e-09 beta[203]
   - 9.08162e-09 beta[204] + 2.30734e-09 beta[205] + 1.92843e-08 beta[206]
   + 2.30195e-09 beta[207] + 1.66247e-08 beta[208] - 2.99722e-09 beta[209]
   - 9.45824e-09 beta[210] + 4.61743e-09 beta[211] + 8.96477e-09 beta[212]
   - 6.3736e-09 beta[213] - 9.8812e-09 beta[214] + 9.22687e-09 beta[215]
   - 7.40828e-08 beta[216] + 6.11515e-09 beta[217] + 3.61136e-08 beta[218]
   - 8.3401e-09 beta[219] - 2.31438e-08 beta[220] + 1.1184e-08 beta[221]
   + 1.11122e-08 beta[222] - 1.91367e-08 beta[223] + 3.03869e-09 beta[224]
   - 4.54533e-09 beta[225] + 8.75528e-11 beta[226] + 4.37528e-09 beta[227]
   - 6.63348e-09 beta[228] - 3.62786e-09 beta[229] + 1.97268e-08 beta[230]
   + 7.90137e-09 beta[231] + 2.15089e-07 beta[232] - 4.57755e-09 beta[233]
   - 1.073e-07 beta[234] + 1.05438e-08 beta[235] + 8.32773e-08 beta[236]
   - 1.90062e-08 beta[237] - 7.87203e-08 beta[238] + 2.72488e-08 beta[239]
   - 1.24248e-07 beta[240] + 1.66253e-08 beta[241] + 5.85474e-08 beta[242]
   - 2.73167e-08 beta[243] - 3.76441e-08 beta[244] + 4.04508e-08 beta[245]
   + 2.42443e-08 beta[246] - 5.94048e-08 beta[247] - 2.6244e-07 beta[248]
   - 1.58931e-08 beta[249] + 1.34949e-07 beta[250] + 2.10658e-08 beta[251]
   - 1.12696e-07 beta[252] - 2.5042e-08 beta[253] + 1.16309e-07 beta[254]
   + 3.65134e-08 beta[255] + 2.63464e-07 beta[256] - 1.08039e-08 beta[257]
   - 1.28827e-07 beta[258] + 2.52674e-08 beta[259] + 9.9857e-08 beta[260]
   - 4.51902e-08 beta[261] - 1.01596e-07 beta[262] + 6.21567e-08 beta[263]
   - 4.05909e-08 beta[264] + 3.96026e-08 beta[265] + 9.2987e-09 beta[266]
   - 6.94766e-08 beta[267] + 5.83915e-09 beta[268] + 1.05255e-07 beta[269]
   - 9.50548e-09 beta[270] - 1.44868e-07 beta[271] + 8.51705e-08 beta[272]
   - 2.27788e-08 beta[273] - 3.24853e-08 beta[274] + 3.64137e-08 beta[275]
   + 5.55135e-09 beta[276] - 5.27625e-08 beta[277] + 2.03663e-08 beta[278]
   + 7.75012e-08 beta[279] + 6.03511e-07 beta[280] - 3.26702e-08 beta[281]
   - 3.01095e-07 beta[282] + 5.86459e-08 beta[283] + 2.34766e-07 beta[284]
   - 8.6047e-08 beta[285] - 2.2369e-07 beta[286] + 1.04191e-07 beta[287]
   <= 2.3904e-05
 R615: - 2.12455e-08 beta[0] - 4.77673e-08 beta[1] + 5.30435e-08 beta[2]
   + 4.40221e-08 beta[3] + 2.03827e-08 beta[4] + 8.33501e-09 beta[5]
   + 3.39678e-09 beta[6] + 1.39612e-09 beta[7] + 9.45447e-08 beta[8]
   - 1.77032e-07 beta[9] - 8.56581e-08 beta[10] - 3.12778e-08 beta[11]
   - 1.27476e-08 beta[12] - 5.49851e-09 beta[13] - 2.34079e-09 beta[14]
   - 9.66994e-10 beta[15] + 1.77327e-07 beta[16] - 8.13315e-08 beta[17]
   - 9.84373e-08 beta[18] - 4.61433e-08 beta[19] - 1.65326e-08 beta[20]
   - 5.34886e-09 beta[21] - 1.68792e-09 beta[22] - 5.38625e-10 beta[23]
   + 1.7814e-06 beta[24] + 9.30757e-07 beta[25] + 3.66267e-07 beta[26]
   + 1.27089e-07 beta[27] + 4.44335e-08 beta[28] + 1.57732e-08 beta[29]
   + 5.62933e-09 beta[30] + 2.01478e-09 beta[31] - 1.91583e-06 beta[32]
   - 4.70146e-07 beta[33] - 8.84741e-08 beta[34] - 2.89425e-08 beta[35]
   - 1.29439e-08 beta[36] - 5.8792e-09 beta[37] - 2.51817e-09 beta[38]
   - 1.01069e-09 beta[39] - 6.17563e-06 beta[40] - 2.2379e-06 beta[41]
   - 7.33361e-07 beta[42] - 2.23854e-07 beta[43] - 6.82688e-08 beta[44]
   - 2.11547e-08 beta[45] - 6.70647e-09 beta[46] - 2.18741e-09 beta[47]
   + 1.10351e-05 beta[48] + 3.00134e-06 beta[49] + 8.38755e-07 beta[50]
   + 2.6054e-07 beta[51] + 8.53805e-08 beta[52] + 2.87109e-08 beta[53]
   + 9.73585e-09 beta[54] + 3.26632e-09 beta[55] + 4.7535e-06 beta[56]
   + 1.57803e-06 beta[57] + 4.14211e-07 beta[58] + 9.26528e-08 beta[59]
   + 1.87833e-08 beta[60] + 3.70033e-09 beta[61] + 9.11715e-10 beta[62]
   + 3.51871e-10 beta[63] - 2.45013e-05 beta[64] - 5.3653e-06 beta[65]
   - 1.39401e-06 beta[66] - 3.98191e-07 beta[67] - 1.21539e-07 beta[68]
   - 3.85698e-08 beta[69] - 1.23057e-08 beta[70] - 3.78474e-09 beta[71]
   + 7.62023e-06 beta[72] + 1.65928e-06 beta[73] + 5.88562e-07 beta[74]
   + 2.16791e-07 beta[75] + 7.39734e-08 beta[76] + 2.24533e-08 beta[77]
   + 5.79597e-09 beta[78] + 1.16063e-09 beta[79] + 2.95786e-05 beta[80]
   + 3.51026e-06 beta[81] + 7.5989e-07 beta[82] + 2.10459e-07 beta[83]
   + 7.06083e-08 beta[84] + 2.46439e-08 beta[85] + 7.72593e-09 beta[86]
   + 1.80495e-09 beta[87] - 1.33512e-05 beta[88] - 2.36967e-06 beta[89]
   - 8.48421e-07 beta[90] - 2.90339e-07 beta[91] - 8.15204e-08 beta[92]
   - 1.48544e-08 beta[93] + 1.14365e-09 beta[94] + 2.70237e-09 beta[95]
   + 1.38889e-08 beta[96] - 2.38007e-09 beta[97] - 8.21451e-09 beta[98]
   - 4.63934e-09 beta[99] - 1.67802e-09 beta[100] - 6.49167e-10 beta[101]
   - 3.45926e-10 beta[102] - 2.19978e-10 beta[103] - 2.92148e-09 beta[104]
   + 7.84312e-09 beta[105] - 2.71043e-09 beta[106] - 2.9232e-09 beta[107]
   - 1.87276e-09 beta[108] - 1.16207e-09 beta[109] - 7.34019e-10 beta[110]
   - 4.67401e-10 beta[111] + 1.15276e-08 beta[112] + 2.12071e-08 beta[113]
   + 1.22544e-08 beta[114] + 6.40835e-09 beta[115] + 3.07026e-09 beta[116]
   + 1.56859e-09 beta[117] + 8.66295e-10 beta[118] + 4.90105e-10 beta[119]
   + 1.34509e-08 beta[120] - 9.36318e-09 beta[121] + 4.96256e-09 beta[122]
   + 5.11213e-09 beta[123] + 3.17024e-09 beta[124] + 1.89026e-09 beta[125]
   + 1.14119e-09 beta[126] + 6.86014e-10 beta[127] - 6.22886e-08 beta[128]
   - 6.4264e-08 beta[129] - 3.07211e-08 beta[130] - 1.52125e-08 beta[131]
   - 7.7544e-09 beta[132] - 4.06544e-09 beta[133] - 2.16712e-09 beta[134]
   - 1.16033e-09 beta[135] + 5.62655e-08 beta[136] + 2.1201e-08 beta[137]
   - 7.12822e-10 beta[138] - 3.49145e-09 beta[139] - 2.31719e-09 beta[140]
   - 1.37367e-09 beta[141] - 7.90301e-10 beta[142] - 4.26401e-10 beta[143]
   + 2.18101e-07 beta[144] + 1.2749e-07 beta[145] + 5.80181e-08 beta[146]
   + 2.71561e-08 beta[147] + 1.34626e-08 beta[148] + 6.79454e-09 beta[149]
   + 3.45698e-09 beta[150] + 1.79114e-09 beta[151] - 3.51103e-07 beta[152]
   - 6.07468e-08 beta[153] - 1.64204e-08 beta[154] - 5.31052e-09 beta[155]
   - 2.41852e-09 beta[156] - 1.34759e-09 beta[157] - 8.75975e-10 beta[158]
   - 6.16355e-10 beta[159] - 6.02862e-07 beta[160] - 1.77515e-07 beta[161]
   - 7.42505e-08 beta[162] - 3.16447e-08 beta[163] - 1.44497e-08 beta[164]
   - 6.77788e-09 beta[165] - 3.31687e-09 beta[166] - 1.77061e-09 beta[167]
   + 9.28113e-07 beta[168] + 1.07561e-07 beta[169] + 3.30433e-08 beta[170]
   + 1.48035e-08 beta[171] + 8.25494e-09 beta[172] + 5.21653e-09 beta[173]
   + 3.4457e-09 beta[174] + 2.21659e-09 beta[175] + 1.38371e-06 beta[176]
   + 1.88441e-07 beta[177] + 6.34048e-08 beta[178] + 2.11611e-08 beta[179]
   + 7.52552e-09 beta[180] + 3.15301e-09 beta[181] + 1.92634e-09 beta[182]
   + 1.5754e-09 beta[183] - 1.73161e-06 beta[184] - 1.16324e-07 beta[185]
   - 2.86613e-08 beta[186] - 1.80558e-08 beta[187] - 1.38372e-08 beta[188]
   - 1.04074e-08 beta[189] - 7.13528e-09 beta[190] - 4.34653e-09 beta[191]
   - 6.19997e-09 beta[192] - 3.02127e-09 beta[193] - 1.00528e-09 beta[194]
   + 5.02974e-09 beta[195] + 1.0878e-08 beta[196] - 3.89514e-09 beta[197]
   - 2.56736e-08 beta[198] - 5.13347e-09 beta[199] + 1.38331e-09 beta[200]
   + 1.49013e-09 beta[201] + 2.42044e-09 beta[202] - 2.68206e-09 beta[203]
   - 9.08162e-09 beta[204] + 2.30734e-09 beta[205] + 1.92843e-08 beta[206]
   + 2.30195e-09 beta[207] + 1.66247e-08 beta[208] - 2.99722e-09 beta[209]
   - 9.45824e-09 beta[210] + 4.61743e-09 beta[211] + 8.96477e-09 beta[212]
   - 6.3736e-09 beta[213] - 9.8812e-09 beta[214] + 9.22687e-09 beta[215]
   - 7.40828e-08 beta[216] + 6.11515e-09 beta[217] + 3.61136e-08 beta[218]
   - 8.3401e-09 beta[219] - 2.31438e-08 beta[220] + 1.1184e-08 beta[221]
   + 1.11122e-08 beta[222] - 1.91367e-08 beta[223] + 3.03869e-09 beta[224]
   - 4.54533e-09 beta[225] + 8.75528e-11 beta[226] + 4.37528e-09 beta[227]
   - 6.63348e-09 beta[228] - 3.62786e-09 beta[229] + 1.97268e-08 beta[230]
   + 7.90137e-09 beta[231] + 2.15089e-07 beta[232] - 4.57755e-09 beta[233]
   - 1.073e-07 beta[234] + 1.05438e-08 beta[235] + 8.32773e-08 beta[236]
   - 1.90062e-08 beta[237] - 7.87203e-08 beta[238] + 2.72488e-08 beta[239]
   - 1.24248e-07 beta[240] + 1.66253e-08 beta[241] + 5.85474e-08 beta[242]
   - 2.73167e-08 beta[243] - 3.76441e-08 beta[244] + 4.04508e-08 beta[245]
   + 2.42443e-08 beta[246] - 5.94048e-08 beta[247] - 2.6244e-07 beta[248]
   - 1.58931e-08 beta[249] + 1.34949e-07 beta[250] + 2.10658e-08 beta[251]
   - 1.12696e-07 beta[252] - 2.5042e-08 beta[253] + 1.16309e-07 beta[254]
   + 3.65134e-08 beta[255] + 2.63464e-07 beta[256] - 1.08039e-08 beta[257]
   - 1.28827e-07 beta[258] + 2.52674e-08 beta[259] + 9.9857e-08 beta[260]
   - 4.51902e-08 beta[261] - 1.01596e-07 beta[262] + 6.21567e-08 beta[263]
   - 4.05909e-08 beta[264] + 3.96026e-08 beta[265] + 9.2987e-09 beta[266]
   - 6.94766e-08 beta[267] + 5.83915e-09 beta[268] + 1.05255e-07 beta[269]
   - 9.50548e-09 beta[270] - 1.44868e-07 beta[271] + 8.51705e-08 beta[272]
   - 2.27788e-08 beta[273] - 3.24853e-08 beta[274] + 3.64137e-08 beta[275]
   + 5.55135e-09 beta[276] - 5.27625e-08 beta[277] + 2.03663e-08 beta[278]
   + 7.75012e-08 beta[279] + 6.03511e-07 beta[280] - 3.26702e-08 beta[281]
   - 3.01095e-07 beta[282] + 5.86459e-08 beta[283] + 2.34766e-07 beta[284]
   - 8.6047e-08 beta[285] - 2.2369e-07 beta[286] + 1.04191e-07 beta[287]
   >= -2.3904e-05
 R616: - 1.38378e-12 beta[0] - 6.68088e-12 beta[1] + 1.7942e-11 beta[2]
   + 7.89027e-12 beta[3] + 1.02433e-12 beta[4] - 3.4314e-13 beta[5]
   - 2.79703e-13 beta[6] - 1.21045e-13 beta[7] + 3.30402e-13 beta[8]
   - 2.3637e-11 beta[9] + 7.13646e-12 beta[10] + 7.85852e-12 beta[11]
   + 3.27156e-12 beta[12] + 1.05627e-12 beta[13] + 3.08207e-13 beta[14]
   + 1.47473e-10 beta[16] - 7.56171e-11 beta[17] - 3.82753e-11 beta[18]
   - 1.12088e-11 beta[19] - 2.2904e-12 beta[20] - 2.8885e-13 beta[21]
   + 2.42002e-10 beta[24] + 5.28099e-11 beta[25] - 1.2961e-11 beta[26]
   - 1.18699e-11 beta[27] - 4.74705e-12 beta[28] - 1.51077e-12 beta[29]
   - 4.38064e-13 beta[30] - 1.21722e-13 beta[31] - 4.03455e-10 beta[32]
   + 2.42522e-10 beta[33] + 8.69872e-11 beta[34] + 2.29543e-11 beta[35]
   + 5.35438e-12 beta[36] + 1.16086e-12 beta[37] + 2.37929e-13 beta[38]
   - 5.61561e-10 beta[40] - 1.59325e-10 beta[41] + 3.39149e-13 beta[42]
   + 9.57691e-12 beta[43] + 4.23658e-12 beta[44] + 1.39783e-12 beta[45]
   + 4.14544e-13 beta[46] + 1.17258e-13 beta[47] + 1.77341e-09 beta[48]
   - 4.07014e-10 beta[49] - 1.33999e-10 beta[50] - 3.47957e-11 beta[51]
   - 8.531e-12 beta[52] - 2.05662e-12 beta[53] - 4.93215e-13 beta[54]
   - 1.17885e-13 beta[55] - 1.22903e-10 beta[56] + 3.18674e-10 beta[57]
   + 3.71842e-11 beta[58] + 9.46412e-13 beta[59] - 1.27705e-12 beta[60]
   - 6.07922e-13 beta[61] - 2.13885e-13 beta[62] - 6.03221e-09 beta[64]
   + 4.07135e-10 beta[65] + 1.43549e-10 beta[66] + 3.78079e-11 beta[67]
   + 9.66941e-12 beta[68] + 2.48207e-12 beta[69] + 6.40291e-13 beta[70]
   + 1.6386e-13 beta[71] + 3.36774e-09 beta[72] - 3.86754e-10 beta[73]
   - 7.8614e-11 beta[74] - 1.47228e-11 beta[75] - 2.87809e-12 beta[76]
   - 5.44741e-13 beta[77] + 1.46059e-08 beta[80] - 1.42057e-10 beta[81]
   - 1.02759e-10 beta[82] - 2.92436e-11 beta[83] - 8.18316e-12 beta[84]
   - 2.33592e-12 beta[85] - 6.67281e-13 beta[86] - 1.8522e-13 beta[87]
   - 9.68952e-09 beta[88] + 2.31446e-10 beta[89] + 1.01833e-10 beta[90]
   + 2.68223e-11 beta[91] + 7.04075e-12 beta[92] + 1.74348e-12 beta[93]
   + 3.77602e-13 beta[94] - 5.1618e-12 beta[96] - 6.48835e-13 beta[97]
   - 1.47286e-12 beta[98] + 2.1601e-13 beta[99] + 6.29445e-13 beta[100]
   + 4.23056e-13 beta[101] + 2.00049e-13 beta[102] + 1.82337e-12 beta[104]
   - 4.01957e-13 beta[105] - 1.69431e-12 beta[106] - 6.19084e-13 beta[107]
   + 8.78181e-12 beta[112] + 1.56208e-12 beta[113] - 4.46037e-13 beta[114]
   - 8.28318e-13 beta[115] - 6.04105e-13 beta[116] - 3.21996e-13 beta[117]
   - 1.4483e-13 beta[118] - 1.06481e-11 beta[120] + 3.93251e-12 beta[121]
   + 2.75416e-12 beta[122] + 8.77093e-13 beta[123] - 2.49244e-11 beta[128]
   - 9.91852e-13 beta[129] + 2.4046e-12 beta[130] + 1.73178e-12 beta[131]
   + 8.97491e-13 beta[132] + 4.16474e-13 beta[133] + 1.83355e-13 beta[134]
   + 5.37934e-11 beta[136] - 9.05975e-12 beta[137] - 3.75444e-12 beta[138]
   - 1.04805e-12 beta[139] - 1.57922e-13 beta[140] + 8.00341e-11 beta[144]
   - 1.682e-12 beta[145] - 4.28325e-12 beta[146] - 2.45862e-12 beta[147]
   - 1.14087e-12 beta[148] - 5.02376e-13 beta[149] - 2.19245e-13 beta[150]
   - 1.74669e-10 beta[152] + 9.92539e-12 beta[153] + 4.31555e-12 beta[154]
   + 1.1715e-12 beta[155] + 2.6845e-13 beta[156] - 2.2889e-10 beta[160]
   + 2.64587e-12 beta[161] + 5.20775e-12 beta[162] + 2.61616e-12 beta[163]
   + 1.14783e-12 beta[164] + 4.90758e-13 beta[165] + 2.10108e-13 beta[166]
   + 4.0341e-10 beta[168] + 7.73724e-13 beta[169] - 3.66163e-12 beta[170]
   - 1.15146e-12 beta[171] - 3.7555e-13 beta[172] - 1.34915e-13 beta[173]
   + 5.33393e-10 beta[176] + 4.84083e-12 beta[177] - 4.30759e-12 beta[178]
   - 2.00163e-12 beta[179] - 8.31784e-13 beta[180] - 3.42529e-13 beta[181]
   - 1.45322e-13 beta[182] - 7.10498e-10 beta[184] - 2.66455e-11 beta[185]
   + 1.18485e-12 beta[186] + 8.66915e-13 beta[187] + 4.35591e-13 beta[188]
   + 2.44686e-13 beta[189] + 1.4433e-13 beta[190] - 4.68736e-13 beta[192]
   - 5.93275e-13 beta[193] + 1.65215e-13 beta[194] + 2.0513e-12 beta[195]
   + 1.04584e-12 beta[196] - 4.66411e-12 beta[197] - 4.77579e-12 beta[198]
   + 7.5113e-12 beta[199] - 1.12871e-12 beta[200] + 7.11431e-13 beta[201]
   + 4.28463e-13 beta[202] - 2.04454e-12 beta[203] - 8.83159e-13 beta[204]
   + 4.36834e-12 beta[205] + 3.26506e-12 beta[206] - 7.07445e-12 beta[207]
   + 1.15047e-11 beta[208] - 7.82202e-13 beta[209] - 5.32589e-12 beta[210]
   + 1.7954e-12 beta[211] + 3.62931e-12 beta[212] - 3.46589e-12 beta[213]
   - 3.37444e-12 beta[214] + 5.65639e-12 beta[215] - 7.72594e-13 beta[216]
   + 4.03015e-13 beta[217] - 2.28979e-13 beta[218] - 7.41532e-13 beta[219]
   + 1.3212e-12 beta[220] + 1.27573e-12 beta[221] - 2.8092e-12 beta[222]
   - 2.26182e-12 beta[223] - 3.53092e-11 beta[224] + 2.1908e-13 beta[225]
   + 1.81184e-11 beta[226] - 7.07858e-13 beta[227] - 1.48161e-11 beta[228]
   + 1.53974e-12 beta[229] + 1.49117e-11 beta[230] - 2.3031e-12 beta[231]
   - 3.15311e-13 beta[232] - 1.43316e-12 beta[233] + 2.78725e-13 beta[234]
   + 2.90881e-12 beta[235] + 1.12809e-13 beta[236] - 5.0975e-12 beta[237]
   - 1.70153e-12 beta[238] + 7.7427e-12 beta[239] + 9.6425e-11 beta[240]
   + 3.12677e-12 beta[241] - 4.90944e-11 beta[242] - 5.49918e-12 beta[243]
   + 3.79788e-11 beta[244] + 8.5222e-12 beta[245] - 3.23448e-11 beta[246]
   - 1.23123e-11 beta[247] + 6.32611e-12 beta[248] - 6.85123e-13 beta[249]
   - 1.80495e-12 beta[250] + 1.44463e-12 beta[251] - 9.94639e-13 beta[252]
   - 2.73942e-12 beta[253] + 3.88346e-12 beta[254] + 4.81993e-12 beta[255]
   - 2.6775e-10 beta[256] - 6.29288e-12 beta[257] + 1.32818e-10 beta[258]
   + 9.75697e-12 beta[259] - 9.73838e-11 beta[260] - 1.27263e-11 beta[261]
   + 7.73836e-11 beta[262] + 1.52436e-11 beta[263] + 5.26222e-11 beta[264]
   + 4.74998e-12 beta[265] - 2.66574e-11 beta[266] - 8.16078e-12 beta[267]
   + 1.99771e-11 beta[268] + 1.22364e-11 beta[269] - 1.52996e-11 beta[270]
   - 1.70079e-11 beta[271] + 6.29908e-10 beta[272] + 7.96883e-12 beta[273]
   - 3.12719e-10 beta[274] - 1.07069e-11 beta[275] + 2.31142e-10 beta[276]
   + 1.08205e-11 beta[277] - 1.89219e-10 beta[278] - 8.79756e-12 beta[279]
   - 4.09163e-10 beta[280] - 6.2883e-12 beta[281] + 2.01858e-10 beta[282]
   + 8.81812e-12 beta[283] - 1.46666e-10 beta[284] - 9.65774e-12 beta[285]
   + 1.16042e-10 beta[286] + 8.88918e-12 beta[287] <= 2.3904e-05
 R617: - 1.38378e-12 beta[0] - 6.68088e-12 beta[1] + 1.7942e-11 beta[2]
   + 7.89027e-12 beta[3] + 1.02433e-12 beta[4] - 3.4314e-13 beta[5]
   - 2.79703e-13 beta[6] - 1.21045e-13 beta[7] + 3.30402e-13 beta[8]
   - 2.3637e-11 beta[9] + 7.13646e-12 beta[10] + 7.85852e-12 beta[11]
   + 3.27156e-12 beta[12] + 1.05627e-12 beta[13] + 3.08207e-13 beta[14]
   + 1.47473e-10 beta[16] - 7.56171e-11 beta[17] - 3.82753e-11 beta[18]
   - 1.12088e-11 beta[19] - 2.2904e-12 beta[20] - 2.8885e-13 beta[21]
   + 2.42002e-10 beta[24] + 5.28099e-11 beta[25] - 1.2961e-11 beta[26]
   - 1.18699e-11 beta[27] - 4.74705e-12 beta[28] - 1.51077e-12 beta[29]
   - 4.38064e-13 beta[30] - 1.21722e-13 beta[31] - 4.03455e-10 beta[32]
   + 2.42522e-10 beta[33] + 8.69872e-11 beta[34] + 2.29543e-11 beta[35]
   + 5.35438e-12 beta[36] + 1.16086e-12 beta[37] + 2.37929e-13 beta[38]
   - 5.61561e-10 beta[40] - 1.59325e-10 beta[41] + 3.39149e-13 beta[42]
   + 9.57691e-12 beta[43] + 4.23658e-12 beta[44] + 1.39783e-12 beta[45]
   + 4.14544e-13 beta[46] + 1.17258e-13 beta[47] + 1.77341e-09 beta[48]
   - 4.07014e-10 beta[49] - 1.33999e-10 beta[50] - 3.47957e-11 beta[51]
   - 8.531e-12 beta[52] - 2.05662e-12 beta[53] - 4.93215e-13 beta[54]
   - 1.17885e-13 beta[55] - 1.22903e-10 beta[56] + 3.18674e-10 beta[57]
   + 3.71842e-11 beta[58] + 9.46412e-13 beta[59] - 1.27705e-12 beta[60]
   - 6.07922e-13 beta[61] - 2.13885e-13 beta[62] - 6.03221e-09 beta[64]
   + 4.07135e-10 beta[65] + 1.43549e-10 beta[66] + 3.78079e-11 beta[67]
   + 9.66941e-12 beta[68] + 2.48207e-12 beta[69] + 6.40291e-13 beta[70]
   + 1.6386e-13 beta[71] + 3.36774e-09 beta[72] - 3.86754e-10 beta[73]
   - 7.8614e-11 beta[74] - 1.47228e-11 beta[75] - 2.87809e-12 beta[76]
   - 5.44741e-13 beta[77] + 1.46059e-08 beta[80] - 1.42057e-10 beta[81]
   - 1.02759e-10 beta[82] - 2.92436e-11 beta[83] - 8.18316e-12 beta[84]
   - 2.33592e-12 beta[85] - 6.67281e-13 beta[86] - 1.8522e-13 beta[87]
   - 9.68952e-09 beta[88] + 2.31446e-10 beta[89] + 1.01833e-10 beta[90]
   + 2.68223e-11 beta[91] + 7.04075e-12 beta[92] + 1.74348e-12 beta[93]
   + 3.77602e-13 beta[94] - 5.1618e-12 beta[96] - 6.48835e-13 beta[97]
   - 1.47286e-12 beta[98] + 2.1601e-13 beta[99] + 6.29445e-13 beta[100]
   + 4.23056e-13 beta[101] + 2.00049e-13 beta[102] + 1.82337e-12 beta[104]
   - 4.01957e-13 beta[105] - 1.69431e-12 beta[106] - 6.19084e-13 beta[107]
   + 8.78181e-12 beta[112] + 1.56208e-12 beta[113] - 4.46037e-13 beta[114]
   - 8.28318e-13 beta[115] - 6.04105e-13 beta[116] - 3.21996e-13 beta[117]
   - 1.4483e-13 beta[118] - 1.06481e-11 beta[120] + 3.93251e-12 beta[121]
   + 2.75416e-12 beta[122] + 8.77093e-13 beta[123] - 2.49244e-11 beta[128]
   - 9.91852e-13 beta[129] + 2.4046e-12 beta[130] + 1.73178e-12 beta[131]
   + 8.97491e-13 beta[132] + 4.16474e-13 beta[133] + 1.83355e-13 beta[134]
   + 5.37934e-11 beta[136] - 9.05975e-12 beta[137] - 3.75444e-12 beta[138]
   - 1.04805e-12 beta[139] - 1.57922e-13 beta[140] + 8.00341e-11 beta[144]
   - 1.682e-12 beta[145] - 4.28325e-12 beta[146] - 2.45862e-12 beta[147]
   - 1.14087e-12 beta[148] - 5.02376e-13 beta[149] - 2.19245e-13 beta[150]
   - 1.74669e-10 beta[152] + 9.92539e-12 beta[153] + 4.31555e-12 beta[154]
   + 1.1715e-12 beta[155] + 2.6845e-13 beta[156] - 2.2889e-10 beta[160]
   + 2.64587e-12 beta[161] + 5.20775e-12 beta[162] + 2.61616e-12 beta[163]
   + 1.14783e-12 beta[164] + 4.90758e-13 beta[165] + 2.10108e-13 beta[166]
   + 4.0341e-10 beta[168] + 7.73724e-13 beta[169] - 3.66163e-12 beta[170]
   - 1.15146e-12 beta[171] - 3.7555e-13 beta[172] - 1.34915e-13 beta[173]
   + 5.33393e-10 beta[176] + 4.84083e-12 beta[177] - 4.30759e-12 beta[178]
   - 2.00163e-12 beta[179] - 8.31784e-13 beta[180] - 3.42529e-13 beta[181]
   - 1.45322e-13 beta[182] - 7.10498e-10 beta[184] - 2.66455e-11 beta[185]
   + 1.18485e-12 beta[186] + 8.66915e-13 beta[187] + 4.35591e-13 beta[188]
   + 2.44686e-13 beta[189] + 1.4433e-13 beta[190] - 4.68736e-13 beta[192]
   - 5.93275e-13 beta[193] + 1.65215e-13 beta[194] + 2.0513e-12 beta[195]
   + 1.04584e-12 beta[196] - 4.66411e-12 beta[197] - 4.77579e-12 beta[198]
   + 7.5113e-12 beta[199] - 1.12871e-12 beta[200] + 7.11431e-13 beta[201]
   + 4.28463e-13 beta[202] - 2.04454e-12 beta[203] - 8.83159e-13 beta[204]
   + 4.36834e-12 beta[205] + 3.26506e-12 beta[206] - 7.07445e-12 beta[207]
   + 1.15047e-11 beta[208] - 7.82202e-13 beta[209] - 5.32589e-12 beta[210]
   + 1.7954e-12 beta[211] + 3.62931e-12 beta[212] - 3.46589e-12 beta[213]
   - 3.37444e-12 beta[214] + 5.65639e-12 beta[215] - 7.72594e-13 beta[216]
   + 4.03015e-13 beta[217] - 2.28979e-13 beta[218] - 7.41532e-13 beta[219]
   + 1.3212e-12 beta[220] + 1.27573e-12 beta[221] - 2.8092e-12 beta[222]
   - 2.26182e-12 beta[223] - 3.53092e-11 beta[224] + 2.1908e-13 beta[225]
   + 1.81184e-11 beta[226] - 7.07858e-13 beta[227] - 1.48161e-11 beta[228]
   + 1.53974e-12 beta[229] + 1.49117e-11 beta[230] - 2.3031e-12 beta[231]
   - 3.15311e-13 beta[232] - 1.43316e-12 beta[233] + 2.78725e-13 beta[234]
   + 2.90881e-12 beta[235] + 1.12809e-13 beta[236] - 5.0975e-12 beta[237]
   - 1.70153e-12 beta[238] + 7.7427e-12 beta[239] + 9.6425e-11 beta[240]
   + 3.12677e-12 beta[241] - 4.90944e-11 beta[242] - 5.49918e-12 beta[243]
   + 3.79788e-11 beta[244] + 8.5222e-12 beta[245] - 3.23448e-11 beta[246]
   - 1.23123e-11 beta[247] + 6.32611e-12 beta[248] - 6.85123e-13 beta[249]
   - 1.80495e-12 beta[250] + 1.44463e-12 beta[251] - 9.94639e-13 beta[252]
   - 2.73942e-12 beta[253] + 3.88346e-12 beta[254] + 4.81993e-12 beta[255]
   - 2.6775e-10 beta[256] - 6.29288e-12 beta[257] + 1.32818e-10 beta[258]
   + 9.75697e-12 beta[259] - 9.73838e-11 beta[260] - 1.27263e-11 beta[261]
   + 7.73836e-11 beta[262] + 1.52436e-11 beta[263] + 5.26222e-11 beta[264]
   + 4.74998e-12 beta[265] - 2.66574e-11 beta[266] - 8.16078e-12 beta[267]
   + 1.99771e-11 beta[268] + 1.22364e-11 beta[269] - 1.52996e-11 beta[270]
   - 1.70079e-11 beta[271] + 6.29908e-10 beta[272] + 7.96883e-12 beta[273]
   - 3.12719e-10 beta[274] - 1.07069e-11 beta[275] + 2.31142e-10 beta[276]
   + 1.08205e-11 beta[277] - 1.89219e-10 beta[278] - 8.79756e-12 beta[279]
   - 4.09163e-10 beta[280] - 6.2883e-12 beta[281] + 2.01858e-10 beta[282]
   + 8.81812e-12 beta[283] - 1.46666e-10 beta[284] - 9.65774e-12 beta[285]
   + 1.16042e-10 beta[286] + 8.88918e-12 beta[287] >= -2.3904e-05
 R618: - 7.76978e-12 beta[0] + 5.15202e-11 beta[1] - 4.35176e-11 beta[2]
   - 6.29404e-12 beta[3] + 4.66263e-12 beta[4] + 8.33534e-13 beta[5]
   - 2.56519e-12 beta[6] - 3.79459e-12 beta[7] + 2.51016e-10 beta[8]
   + 9.66067e-11 beta[9] - 3.89015e-11 beta[10] - 2.62363e-11 beta[11]
   - 1.2649e-11 beta[12] - 1.10001e-11 beta[13] - 1.12805e-11 beta[14]
   - 1.07697e-11 beta[15] - 1.09798e-09 beta[16] + 1.90686e-10 beta[17]
   + 1.85315e-11 beta[18] - 9.08938e-12 beta[19] + 9.17995e-12 beta[20]
   + 2.10631e-11 beta[21] + 2.35695e-11 beta[22] + 2.109e-11 beta[23]
   - 1.5668e-09 beta[24] + 3.18602e-10 beta[25] + 2.73631e-10 beta[26]
   + 1.10162e-10 beta[27] + 3.88424e-11 beta[28] + 1.54599e-11 beta[29]
   + 8.61897e-12 beta[30] + 6.45198e-12 beta[31] + 4.96068e-09 beta[32]
   - 5.40064e-10 beta[33] - 7.65369e-11 beta[34] - 4.97362e-11 beta[35]
   - 7.41252e-11 beta[36] - 7.77019e-11 beta[37] - 6.70026e-11 beta[38]
   - 5.22039e-11 beta[39] - 1.01027e-08 beta[40] - 1.71516e-09 beta[41]
   - 6.65521e-10 beta[42] - 1.82397e-10 beta[43] - 1.11121e-11 beta[44]
   + 3.40855e-11 beta[45] + 3.63496e-11 beta[46] + 2.81906e-11 beta[47]
   + 5.21079e-09 beta[48] + 9.36713e-10 beta[49] + 2.56726e-10 beta[50]
   + 1.5525e-10 beta[51] + 1.22783e-10 beta[52] + 1.00424e-10 beta[53]
   + 7.84187e-11 beta[54] + 5.85809e-11 beta[55] + 2.35889e-08 beta[56]
   + 3.65535e-09 beta[57] + 9.0113e-10 beta[58] + 1.87711e-10 beta[59]
   - 2.83412e-11 beta[60] - 8.21637e-11 beta[61] - 8.20722e-11 beta[62]
   - 6.76027e-11 beta[63] - 2.87008e-08 beta[64] + 4.38253e-11 beta[65]
   + 1.60282e-11 beta[66] - 1.64331e-10 beta[67] - 1.52056e-10 beta[68]
   - 1.05976e-10 beta[69] - 6.91829e-11 beta[70] - 4.68642e-11 beta[71]
   + 1.86941e-10 beta[72] - 8.32688e-09 beta[73] - 2.13895e-09 beta[74]
   - 4.55154e-10 beta[75] - 1.47589e-11 beta[76] + 9.50249e-11 beta[77]
   + 1.12811e-10 beta[78] + 1.03648e-10 beta[79] - 2.86136e-10 beta[80]
   + 1.74055e-09 beta[81] + 4.16976e-10 beta[82] + 3.90461e-10 beta[83]
   + 2.95937e-10 beta[84] + 1.84869e-10 beta[85] + 1.19628e-10 beta[86]
   + 9.56084e-11 beta[87] + 2.03296e-09 beta[88] + 1.77574e-08 beta[89]
   + 5.85381e-09 beta[90] + 1.44428e-09 beta[91] + 2.12376e-10 beta[92]
   - 1.10716e-10 beta[93] - 1.90828e-10 beta[94] - 2.02416e-10 beta[95]
   + 4.21982e-10 beta[96] - 2.36046e-11 beta[97] + 4.00402e-11 beta[98]
   - 1.03923e-11 beta[99] - 1.83451e-12 beta[100] + 6.97816e-12 beta[101]
   + 1.02953e-11 beta[102] + 1.02342e-11 beta[103] + 2.63791e-10 beta[104]
   - 4.60032e-12 beta[105] + 4.5609e-11 beta[106] - 1.92074e-12 beta[107]
   - 2.91979e-12 beta[108] + 2.52717e-12 beta[109] + 6.6798e-12 beta[110]
   + 9.02056e-12 beta[111] - 1.25544e-10 beta[112] - 3.13307e-11 beta[113]
   + 4.82194e-11 beta[114] + 3.05267e-11 beta[115] + 1.96102e-11 beta[116]
   + 1.5646e-11 beta[117] + 1.47939e-11 beta[118] + 1.52323e-11 beta[119]
   - 2.4392e-10 beta[120] - 1.17891e-10 beta[121] + 8.45484e-12 beta[122]
   + 5.19643e-11 beta[123] + 4.63312e-11 beta[124] + 3.42756e-11 beta[125]
   + 2.37964e-11 beta[126] + 1.62375e-11 beta[127] + 1.78965e-10 beta[128]
   - 2.2115e-11 beta[129] - 8.08041e-11 beta[130] - 4.31494e-11 beta[131]
   - 3.35724e-11 beta[132] - 2.96183e-11 beta[133] - 2.7822e-11 beta[134]
   - 2.76787e-11 beta[135] + 2.79248e-10 beta[136] + 2.02606e-10 beta[137]
   - 4.59267e-11 beta[138] - 6.77053e-11 beta[139] - 6.36268e-11 beta[140]
   - 5.10877e-11 beta[141] - 3.70483e-11 beta[142] - 2.55815e-11 beta[143]
   - 5.6966e-10 beta[144] - 1.30622e-10 beta[145] - 6.49861e-11 beta[146]
   + 4.27057e-12 beta[147] + 3.30069e-11 beta[148] + 3.71105e-11 beta[149]
   + 3.46136e-11 beta[150] + 3.2683e-11 beta[151] - 3.68429e-10 beta[152]
   - 1.11081e-10 beta[153] - 1.29368e-10 beta[154] - 1.33505e-10 beta[155]
   - 1.08806e-10 beta[156] - 9.19074e-11 beta[157] - 8.33548e-11 beta[158]
   - 7.83855e-11 beta[159] + 2.31166e-09 beta[160] + 1.05168e-09 beta[161]
   + 5.59401e-10 beta[162] + 2.43785e-10 beta[163] + 1.09371e-10 beta[164]
   + 5.73075e-11 beta[165] + 3.70697e-11 beta[166] + 2.72449e-11 beta[167]
   - 3.30887e-10 beta[168] - 3.45303e-11 beta[169] + 5.02133e-10 beta[170]
   + 6.05528e-10 beta[171] + 5.82646e-10 beta[172] + 5.28538e-10 beta[173]
   + 4.74771e-10 beta[174] + 4.30618e-10 beta[175] - 6.39559e-09 beta[176]
   - 2.1289e-09 beta[177] - 1.07037e-09 beta[178] - 6.6712e-10 beta[179]
   - 4.60073e-10 beta[180] - 3.42417e-10 beta[181] - 2.72733e-10 beta[182]
   - 2.28005e-10 beta[183] - 8.40324e-10 beta[184] - 9.51158e-10 beta[185]
   - 1.28605e-09 beta[186] - 1.51976e-09 beta[187] - 1.59023e-09 beta[188]
   - 1.55465e-09 beta[189] - 1.48244e-09 beta[190] - 1.40991e-09 beta[191]
   - 2.63415e-10 beta[192] + 3.90861e-11 beta[193] + 1.30845e-10 beta[194]
   - 6.35387e-11 beta[195] - 8.15885e-11 beta[196] + 1.16111e-10 beta[197]
   + 2.89668e-11 beta[198] - 2.80723e-10 beta[199] + 1.33318e-10 beta[200]
   - 3.0715e-11 beta[201] - 6.61632e-11 beta[202] + 4.6511e-11 beta[203]
   + 3.42979e-11 beta[204] - 7.97151e-11 beta[205] + 1.56271e-11 beta[206]
   + 2.09505e-10 beta[207] - 8.92122e-11 beta[208] + 2.24802e-11 beta[209]
   + 4.75073e-11 beta[210] - 2.68646e-11 beta[211] - 2.79906e-11 beta[212]
   + 2.90174e-11 beta[213] - 2.20926e-11 beta[214] - 9.96935e-11 beta[215]
   + 9.98384e-11 beta[216] - 8.462e-12 beta[217] - 5.76511e-11 beta[218]
   + 4.68731e-13 beta[219] + 4.90503e-11 beta[220] + 3.03516e-11 beta[221]
   - 3.7244e-12 beta[222] - 2.56739e-11 beta[223] + 5.80823e-10 beta[224]
   - 2.85774e-12 beta[225] - 2.83581e-10 beta[226] + 1.27712e-11 beta[227]
   + 1.96949e-10 beta[228] - 5.74034e-11 beta[229] - 1.86003e-10 beta[230]
   + 9.50819e-11 beta[231] - 4.29384e-10 beta[232] + 3.88123e-11 beta[233]
   + 2.23054e-10 beta[234] - 4.93837e-11 beta[235] - 1.58987e-10 beta[236]
   + 8.61452e-11 beta[237] + 1.43832e-10 beta[238] - 1.29854e-10 beta[239]
   - 1.40644e-09 beta[240] - 1.06092e-10 beta[241] + 6.67317e-10 beta[242]
   + 1.24742e-10 beta[243] - 4.82192e-10 beta[244] - 1.42127e-10 beta[245]
   + 3.88387e-10 beta[246] + 1.64051e-10 beta[247] + 5.94674e-10 beta[248]
   + 7.92133e-11 beta[249] - 2.44325e-10 beta[250] - 6.75165e-11 beta[251]
   + 1.46712e-10 beta[252] + 3.9005e-11 beta[253] - 1.10984e-10 beta[254]
   - 1.12081e-11 beta[255] + 1.94796e-09 beta[256] + 3.37988e-11 beta[257]
   - 1.00868e-09 beta[258] - 9.11517e-11 beta[259] + 7.7323e-10 beta[260]
   + 1.52571e-10 beta[261] - 6.33494e-10 beta[262] - 2.12858e-10 beta[263]
   + 2.33115e-10 beta[264] - 6.08391e-11 beta[265] - 1.37363e-10 beta[266]
   + 8.64816e-11 beta[267] + 1.40547e-10 beta[268] - 9.20942e-11 beta[269]
   - 1.53104e-10 beta[270] + 1.07807e-10 beta[271] - 1.86862e-09 beta[272]
   + 1.09921e-10 beta[273] + 1.02978e-09 beta[274] - 9.32411e-11 beta[275]
   - 8.75055e-10 beta[276] + 1.84344e-11 beta[277] + 7.70781e-10 beta[278]
   + 2.0124e-11 beta[279] - 2.2627e-09 beta[280] - 2.61169e-10 beta[281]
   + 9.76883e-10 beta[282] + 2.59676e-10 beta[283] - 5.89488e-10 beta[284]
   - 1.53781e-10 beta[285] + 4.80099e-10 beta[286] + 1.14986e-10 beta[287]
   <= 2.3904e-05
 R619: - 7.76978e-12 beta[0] + 5.15202e-11 beta[1] - 4.35176e-11 beta[2]
   - 6.29404e-12 beta[3] + 4.66263e-12 beta[4] + 8.33534e-13 beta[5]
   - 2.56519e-12 beta[6] - 3.79459e-12 beta[7] + 2.51016e-10 beta[8]
   + 9.66067e-11 beta[9] - 3.89015e-11 beta[10] - 2.62363e-11 beta[11]
   - 1.2649e-11 beta[12] - 1.10001e-11 beta[13] - 1.12805e-11 beta[14]
   - 1.07697e-11 beta[15] - 1.09798e-09 beta[16] + 1.90686e-10 beta[17]
   + 1.85315e-11 beta[18] - 9.08938e-12 beta[19] + 9.17995e-12 beta[20]
   + 2.10631e-11 beta[21] + 2.35695e-11 beta[22] + 2.109e-11 beta[23]
   - 1.5668e-09 beta[24] + 3.18602e-10 beta[25] + 2.73631e-10 beta[26]
   + 1.10162e-10 beta[27] + 3.88424e-11 beta[28] + 1.54599e-11 beta[29]
   + 8.61897e-12 beta[30] + 6.45198e-12 beta[31] + 4.96068e-09 beta[32]
   - 5.40064e-10 beta[33] - 7.65369e-11 beta[34] - 4.97362e-11 beta[35]
   - 7.41252e-11 beta[36] - 7.77019e-11 beta[37] - 6.70026e-11 beta[38]
   - 5.22039e-11 beta[39] - 1.01027e-08 beta[40] - 1.71516e-09 beta[41]
   - 6.65521e-10 beta[42] - 1.82397e-10 beta[43] - 1.11121e-11 beta[44]
   + 3.40855e-11 beta[45] + 3.63496e-11 beta[46] + 2.81906e-11 beta[47]
   + 5.21079e-09 beta[48] + 9.36713e-10 beta[49] + 2.56726e-10 beta[50]
   + 1.5525e-10 beta[51] + 1.22783e-10 beta[52] + 1.00424e-10 beta[53]
   + 7.84187e-11 beta[54] + 5.85809e-11 beta[55] + 2.35889e-08 beta[56]
   + 3.65535e-09 beta[57] + 9.0113e-10 beta[58] + 1.87711e-10 beta[59]
   - 2.83412e-11 beta[60] - 8.21637e-11 beta[61] - 8.20722e-11 beta[62]
   - 6.76027e-11 beta[63] - 2.87008e-08 beta[64] + 4.38253e-11 beta[65]
   + 1.60282e-11 beta[66] - 1.64331e-10 beta[67] - 1.52056e-10 beta[68]
   - 1.05976e-10 beta[69] - 6.91829e-11 beta[70] - 4.68642e-11 beta[71]
   + 1.86941e-10 beta[72] - 8.32688e-09 beta[73] - 2.13895e-09 beta[74]
   - 4.55154e-10 beta[75] - 1.47589e-11 beta[76] + 9.50249e-11 beta[77]
   + 1.12811e-10 beta[78] + 1.03648e-10 beta[79] - 2.86136e-10 beta[80]
   + 1.74055e-09 beta[81] + 4.16976e-10 beta[82] + 3.90461e-10 beta[83]
   + 2.95937e-10 beta[84] + 1.84869e-10 beta[85] + 1.19628e-10 beta[86]
   + 9.56084e-11 beta[87] + 2.03296e-09 beta[88] + 1.77574e-08 beta[89]
   + 5.85381e-09 beta[90] + 1.44428e-09 beta[91] + 2.12376e-10 beta[92]
   - 1.10716e-10 beta[93] - 1.90828e-10 beta[94] - 2.02416e-10 beta[95]
   + 4.21982e-10 beta[96] - 2.36046e-11 beta[97] + 4.00402e-11 beta[98]
   - 1.03923e-11 beta[99] - 1.83451e-12 beta[100] + 6.97816e-12 beta[101]
   + 1.02953e-11 beta[102] + 1.02342e-11 beta[103] + 2.63791e-10 beta[104]
   - 4.60032e-12 beta[105] + 4.5609e-11 beta[106] - 1.92074e-12 beta[107]
   - 2.91979e-12 beta[108] + 2.52717e-12 beta[109] + 6.6798e-12 beta[110]
   + 9.02056e-12 beta[111] - 1.25544e-10 beta[112] - 3.13307e-11 beta[113]
   + 4.82194e-11 beta[114] + 3.05267e-11 beta[115] + 1.96102e-11 beta[116]
   + 1.5646e-11 beta[117] + 1.47939e-11 beta[118] + 1.52323e-11 beta[119]
   - 2.4392e-10 beta[120] - 1.17891e-10 beta[121] + 8.45484e-12 beta[122]
   + 5.19643e-11 beta[123] + 4.63312e-11 beta[124] + 3.42756e-11 beta[125]
   + 2.37964e-11 beta[126] + 1.62375e-11 beta[127] + 1.78965e-10 beta[128]
   - 2.2115e-11 beta[129] - 8.08041e-11 beta[130] - 4.31494e-11 beta[131]
   - 3.35724e-11 beta[132] - 2.96183e-11 beta[133] - 2.7822e-11 beta[134]
   - 2.76787e-11 beta[135] + 2.79248e-10 beta[136] + 2.02606e-10 beta[137]
   - 4.59267e-11 beta[138] - 6.77053e-11 beta[139] - 6.36268e-11 beta[140]
   - 5.10877e-11 beta[141] - 3.70483e-11 beta[142] - 2.55815e-11 beta[143]
   - 5.6966e-10 beta[144] - 1.30622e-10 beta[145] - 6.49861e-11 beta[146]
   + 4.27057e-12 beta[147] + 3.30069e-11 beta[148] + 3.71105e-11 beta[149]
   + 3.46136e-11 beta[150] + 3.2683e-11 beta[151] - 3.68429e-10 beta[152]
   - 1.11081e-10 beta[153] - 1.29368e-10 beta[154] - 1.33505e-10 beta[155]
   - 1.08806e-10 beta[156] - 9.19074e-11 beta[157] - 8.33548e-11 beta[158]
   - 7.83855e-11 beta[159] + 2.31166e-09 beta[160] + 1.05168e-09 beta[161]
   + 5.59401e-10 beta[162] + 2.43785e-10 beta[163] + 1.09371e-10 beta[164]
   + 5.73075e-11 beta[165] + 3.70697e-11 beta[166] + 2.72449e-11 beta[167]
   - 3.30887e-10 beta[168] - 3.45303e-11 beta[169] + 5.02133e-10 beta[170]
   + 6.05528e-10 beta[171] + 5.82646e-10 beta[172] + 5.28538e-10 beta[173]
   + 4.74771e-10 beta[174] + 4.30618e-10 beta[175] - 6.39559e-09 beta[176]
   - 2.1289e-09 beta[177] - 1.07037e-09 beta[178] - 6.6712e-10 beta[179]
   - 4.60073e-10 beta[180] - 3.42417e-10 beta[181] - 2.72733e-10 beta[182]
   - 2.28005e-10 beta[183] - 8.40324e-10 beta[184] - 9.51158e-10 beta[185]
   - 1.28605e-09 beta[186] - 1.51976e-09 beta[187] - 1.59023e-09 beta[188]
   - 1.55465e-09 beta[189] - 1.48244e-09 beta[190] - 1.40991e-09 beta[191]
   - 2.63415e-10 beta[192] + 3.90861e-11 beta[193] + 1.30845e-10 beta[194]
   - 6.35387e-11 beta[195] - 8.15885e-11 beta[196] + 1.16111e-10 beta[197]
   + 2.89668e-11 beta[198] - 2.80723e-10 beta[199] + 1.33318e-10 beta[200]
   - 3.0715e-11 beta[201] - 6.61632e-11 beta[202] + 4.6511e-11 beta[203]
   + 3.42979e-11 beta[204] - 7.97151e-11 beta[205] + 1.56271e-11 beta[206]
   + 2.09505e-10 beta[207] - 8.92122e-11 beta[208] + 2.24802e-11 beta[209]
   + 4.75073e-11 beta[210] - 2.68646e-11 beta[211] - 2.79906e-11 beta[212]
   + 2.90174e-11 beta[213] - 2.20926e-11 beta[214] - 9.96935e-11 beta[215]
   + 9.98384e-11 beta[216] - 8.462e-12 beta[217] - 5.76511e-11 beta[218]
   + 4.68731e-13 beta[219] + 4.90503e-11 beta[220] + 3.03516e-11 beta[221]
   - 3.7244e-12 beta[222] - 2.56739e-11 beta[223] + 5.80823e-10 beta[224]
   - 2.85774e-12 beta[225] - 2.83581e-10 beta[226] + 1.27712e-11 beta[227]
   + 1.96949e-10 beta[228] - 5.74034e-11 beta[229] - 1.86003e-10 beta[230]
   + 9.50819e-11 beta[231] - 4.29384e-10 beta[232] + 3.88123e-11 beta[233]
   + 2.23054e-10 beta[234] - 4.93837e-11 beta[235] - 1.58987e-10 beta[236]
   + 8.61452e-11 beta[237] + 1.43832e-10 beta[238] - 1.29854e-10 beta[239]
   - 1.40644e-09 beta[240] - 1.06092e-10 beta[241] + 6.67317e-10 beta[242]
   + 1.24742e-10 beta[243] - 4.82192e-10 beta[244] - 1.42127e-10 beta[245]
   + 3.88387e-10 beta[246] + 1.64051e-10 beta[247] + 5.94674e-10 beta[248]
   + 7.92133e-11 beta[249] - 2.44325e-10 beta[250] - 6.75165e-11 beta[251]
   + 1.46712e-10 beta[252] + 3.9005e-11 beta[253] - 1.10984e-10 beta[254]
   - 1.12081e-11 beta[255] + 1.94796e-09 beta[256] + 3.37988e-11 beta[257]
   - 1.00868e-09 beta[258] - 9.11517e-11 beta[259] + 7.7323e-10 beta[260]
   + 1.52571e-10 beta[261] - 6.33494e-10 beta[262] - 2.12858e-10 beta[263]
   + 2.33115e-10 beta[264] - 6.08391e-11 beta[265] - 1.37363e-10 beta[266]
   + 8.64816e-11 beta[267] + 1.40547e-10 beta[268] - 9.20942e-11 beta[269]
   - 1.53104e-10 beta[270] + 1.07807e-10 beta[271] - 1.86862e-09 beta[272]
   + 1.09921e-10 beta[273] + 1.02978e-09 beta[274] - 9.32411e-11 beta[275]
   - 8.75055e-10 beta[276] + 1.84344e-11 beta[277] + 7.70781e-10 beta[278]
   + 2.0124e-11 beta[279] - 2.2627e-09 beta[280] - 2.61169e-10 beta[281]
   + 9.76883e-10 beta[282] + 2.59676e-10 beta[283] - 5.89488e-10 beta[284]
   - 1.53781e-10 beta[285] + 4.80099e-10 beta[286] + 1.14986e-10 beta[287]
   >= -2.3904e-05
 R620: - 3.19567e-12 beta[0] + 1.14667e-10 beta[1] - 3.65474e-11 beta[2]
   - 1.08062e-10 beta[3] - 4.70839e-11 beta[4] + 3.45775e-12 beta[5]
   + 1.06005e-11 beta[6] - 2.73049e-13 beta[7] - 5.24659e-10 beta[8]
   + 1.27126e-10 beta[9] - 2.96602e-11 beta[10] - 1.3043e-10 beta[11]
   - 1.01273e-10 beta[12] - 5.11062e-11 beta[13] - 2.72988e-11 beta[14]
   - 2.31853e-11 beta[15] + 1.94902e-09 beta[16] + 5.50122e-10 beta[17]
   + 4.01681e-10 beta[18] + 2.26901e-10 beta[19] + 1.16052e-10 beta[20]
   + 6.8687e-11 beta[21] + 4.58461e-11 beta[22] + 2.71725e-11 beta[23]
   + 1.04361e-09 beta[24] - 1.07303e-09 beta[25] - 2.49336e-11 beta[26]
   + 1.53919e-10 beta[27] + 1.24895e-10 beta[28] + 9.34522e-11 beta[29]
   + 8.17413e-11 beta[30] + 7.28979e-11 beta[31] - 2.77619e-08 beta[32]
   - 2.36242e-09 beta[33] - 1.09084e-09 beta[34] - 5.96459e-10 beta[35]
   - 3.50242e-10 beta[36] - 2.0721e-10 beta[37] - 1.00913e-10 beta[38]
   - 2.27412e-11 beta[39] + 5.91206e-08 beta[40] + 7.00969e-09 beta[41]
   + 8.01164e-10 beta[42] - 3.02663e-11 beta[43] - 1.6875e-10 beta[44]
   - 2.02595e-10 beta[45] - 1.82575e-10 beta[46] - 1.27228e-10 beta[47]
   + 7.27469e-09 beta[48] - 2.61061e-09 beta[49] + 9.56336e-10 beta[50]
   + 9.34046e-10 beta[51] + 4.83556e-10 beta[52] + 1.26947e-10 beta[53]
   - 9.3961e-11 beta[54] - 1.94133e-10 beta[55] - 1.78952e-07 beta[56]
   - 1.08294e-08 beta[57] - 5.8584e-10 beta[58] + 3.90011e-10 beta[59]
   + 5.19009e-10 beta[60] + 3.95934e-10 beta[61] + 1.74113e-10 beta[62]
   - 3.9962e-11 beta[63] + 2.21599e-07 beta[64] + 2.00431e-08 beta[65]
   + 1.10659e-09 beta[66] + 2.47991e-10 beta[67] + 8.64042e-10 beta[68]
   + 1.20108e-09 beta[69] + 1.19507e-09 beta[70] + 9.84244e-10 beta[71]
   - 5.2305e-08 beta[72] - 2.02703e-08 beta[73] - 6.28791e-09 beta[74]
   - 2.63712e-09 beta[75] - 9.72713e-10 beta[76] + 2.01709e-10 beta[77]
   + 9.89697e-10 beta[78] + 1.4026e-09 beta[79] - 6.04182e-08 beta[80]
   + 2.1773e-09 beta[81] - 4.25763e-09 beta[82] - 7.59208e-09 beta[83]
   - 7.61071e-09 beta[84] - 6.31836e-09 beta[85] - 4.66901e-09 beta[86]
   - 3.11793e-09 beta[87] + 1.98452e-07 beta[88] + 3.41103e-08 beta[89]
   + 1.36296e-08 beta[90] + 3.64494e-09 beta[91] - 2.48453e-09 beta[92]
   - 5.72109e-09 beta[93] - 6.93846e-09 beta[94] - 6.91303e-09 beta[95]
   - 2.6404e-10 beta[96] - 4.39088e-11 beta[97] + 1.41533e-10 beta[98]
   + 2.24778e-10 beta[99] + 1.0737e-10 beta[100] - 4.95744e-11 beta[101]
   - 1.37715e-10 beta[102] - 1.3896e-10 beta[103] + 4.58636e-10 beta[104]
   + 9.1793e-11 beta[105] + 1.18637e-10 beta[106] + 1.92436e-10 beta[107]
   + 1.33738e-10 beta[108] + 2.20799e-11 beta[109] - 5.94882e-11 beta[110]
   - 8.31425e-11 beta[111] + 1.24244e-09 beta[112] - 3.94062e-10 beta[113]
   - 1.73043e-10 beta[114] + 1.42477e-11 beta[115] + 7.94284e-11 beta[116]
   + 5.98308e-11 beta[117] + 9.93246e-12 beta[118] - 3.14935e-11 beta[119]
   - 6.46977e-09 beta[120] - 1.49127e-09 beta[121] - 5.17758e-10 beta[122]
   - 2.22848e-10 beta[123] - 6.17272e-11 beta[124] + 1.29845e-11 beta[125]
   + 1.69853e-11 beta[126] - 1.81821e-11 beta[127] + 2.39006e-09 beta[128]
   + 2.32193e-09 beta[129] + 6.76581e-10 beta[130] + 9.06969e-11 beta[131]
   + 1.55947e-11 beta[132] + 6.38535e-11 beta[133] + 9.05564e-11 beta[134]
   + 6.71885e-11 beta[135] + 2.32085e-08 beta[136] + 3.42899e-09 beta[137]
   + 6.45093e-10 beta[138] + 1.7546e-10 beta[139] + 1.36503e-10 beta[140]
   + 2.00558e-10 beta[141] + 2.60806e-10 beta[142] + 2.73819e-10 beta[143]
   - 2.45404e-08 beta[144] - 7.14878e-09 beta[145] - 1.94763e-09 beta[146]
   - 5.24886e-10 beta[147] - 1.34444e-10 beta[148] + 5.55727e-11 beta[149]
   + 2.15552e-10 beta[150] + 3.42252e-10 beta[151] - 3.59456e-08 beta[152]
   - 1.71244e-09 beta[153] + 4.38481e-10 beta[154] - 7.71181e-11 beta[155]
   - 4.19625e-10 beta[156] - 4.53481e-10 beta[157] - 2.99264e-10 beta[158]
   - 6.56489e-11 beta[159] + 2.9832e-08 beta[160] + 4.60376e-09 beta[161]
   + 1.26369e-10 beta[162] - 7.93224e-10 beta[163] - 1.13968e-09 beta[164]
   - 1.30482e-09 beta[165] - 1.30663e-09 beta[166] - 1.15705e-09 beta[167]
   + 7.90643e-08 beta[168] + 8.02788e-09 beta[169] + 1.85156e-10 beta[170]
   - 6.05705e-10 beta[171] - 9.77865e-10 beta[172] - 1.48131e-09 beta[173]
   - 1.95616e-09 beta[174] - 2.27191e-09 beta[175] + 4.46585e-08 beta[176]
   + 1.37851e-08 beta[177] + 7.54463e-09 beta[178] + 5.09201e-09 beta[179]
   + 3.72582e-09 beta[180] + 2.5448e-09 beta[181] + 1.38608e-09 beta[182]
   + 3.04649e-10 beta[183] - 2.74257e-07 beta[184] - 4.86914e-08 beta[185]
   - 2.70022e-09 beta[186] + 7.70666e-09 beta[187] + 1.03283e-08 beta[188]
   + 1.06854e-08 beta[189] + 1.0094e-08 beta[190] + 9.01948e-09 beta[191]
   + 1.79125e-11 beta[192] + 1.80246e-11 beta[193] + 1.4815e-10 beta[194]
   - 1.37249e-11 beta[195] - 6.89405e-10 beta[196] - 4.82777e-10 beta[197]
   + 1.80051e-09 beta[198] + 2.99593e-09 beta[199] + 3.48439e-10 beta[200]
   - 4.638e-11 beta[201] - 3.19967e-10 beta[202] + 8.27826e-11 beta[203]
   + 7.97829e-10 beta[204] + 2.95766e-10 beta[205] - 1.92093e-09 beta[206]
   - 2.52888e-09 beta[207] + 6.04282e-10 beta[208] + 1.19459e-10 beta[209]
   - 1.69102e-10 beta[210] - 2.36342e-10 beta[211] - 4.01324e-10 beta[212]
   + 7.67957e-11 beta[213] + 1.6431e-09 beta[214] + 1.62291e-09 beta[215]
   - 3.07578e-09 beta[216] - 2.52927e-10 beta[217] + 1.46138e-09 beta[218]
   + 5.02498e-10 beta[219] - 6.87308e-10 beta[220] - 6.77755e-10 beta[221]
   - 6.76713e-10 beta[222] - 2.04536e-10 beta[223] - 4.11993e-09 beta[224]
   - 4.142e-10 beta[225] + 1.93707e-09 beta[226] + 4.12689e-10 beta[227]
   - 1.46895e-09 beta[228] - 1.21009e-10 beta[229] + 2.01775e-09 beta[230]
   + 1.81688e-10 beta[231] + 1.41732e-08 beta[232] + 1.06936e-09 beta[233]
   - 6.82693e-09 beta[234] - 1.36041e-09 beta[235] + 4.80702e-09 beta[236]
   + 1.04796e-09 beta[237] - 4.30677e-09 beta[238] - 3.40567e-10 beta[239]
   + 5.71068e-09 beta[240] + 1.16892e-09 beta[241] - 2.78708e-09 beta[242]
   - 1.89497e-09 beta[243] + 1.98454e-09 beta[244] + 2.98197e-09 beta[245]
   - 1.06012e-09 beta[246] - 4.88445e-09 beta[247] - 3.50918e-08 beta[248]
   - 4.1957e-09 beta[249] + 1.70775e-08 beta[250] + 6.27795e-09 beta[251]
   - 1.21893e-08 beta[252] - 8.27306e-09 beta[253] + 9.30135e-09 beta[254]
   + 1.13581e-08 beta[255] + 1.32547e-08 beta[256] + 1.05539e-09 beta[257]
   - 6.83879e-09 beta[258] - 1.5982e-09 beta[259] + 5.83552e-09 beta[260]
   + 2.58041e-09 beta[261] - 6.14426e-09 beta[262] - 5.49115e-09 beta[263]
   + 4.31832e-08 beta[264] + 8.05745e-09 beta[265] - 1.97133e-08 beta[266]
   - 1.18764e-08 beta[267] + 1.11005e-08 beta[268] + 1.38506e-08 beta[269]
   - 3.71082e-09 beta[270] - 1.26893e-08 beta[271] - 5.96697e-08 beta[272]
   - 1.11442e-08 beta[273] + 2.78461e-08 beta[274] + 1.67198e-08 beta[275]
   - 1.69136e-08 beta[276] - 2.05158e-08 beta[277] + 7.62699e-09 beta[278]
   + 2.1439e-08 beta[279] - 9.8355e-09 beta[280] - 2.3131e-09 beta[281]
   + 3.39081e-09 beta[282] + 2.46438e-09 beta[283] - 5.29738e-10 beta[284]
   - 9.81803e-10 beta[285] - 1.21896e-10 beta[286] - 7.81524e-10 beta[287]
   <= 2.3904e-05
 R621: - 3.19567e-12 beta[0] + 1.14667e-10 beta[1] - 3.65474e-11 beta[2]
   - 1.08062e-10 beta[3] - 4.70839e-11 beta[4] + 3.45775e-12 beta[5]
   + 1.06005e-11 beta[6] - 2.73049e-13 beta[7] - 5.24659e-10 beta[8]
   + 1.27126e-10 beta[9] - 2.96602e-11 beta[10] - 1.3043e-10 beta[11]
   - 1.01273e-10 beta[12] - 5.11062e-11 beta[13] - 2.72988e-11 beta[14]
   - 2.31853e-11 beta[15] + 1.94902e-09 beta[16] + 5.50122e-10 beta[17]
   + 4.01681e-10 beta[18] + 2.26901e-10 beta[19] + 1.16052e-10 beta[20]
   + 6.8687e-11 beta[21] + 4.58461e-11 beta[22] + 2.71725e-11 beta[23]
   + 1.04361e-09 beta[24] - 1.07303e-09 beta[25] - 2.49336e-11 beta[26]
   + 1.53919e-10 beta[27] + 1.24895e-10 beta[28] + 9.34522e-11 beta[29]
   + 8.17413e-11 beta[30] + 7.28979e-11 beta[31] - 2.77619e-08 beta[32]
   - 2.36242e-09 beta[33] - 1.09084e-09 beta[34] - 5.96459e-10 beta[35]
   - 3.50242e-10 beta[36] - 2.0721e-10 beta[37] - 1.00913e-10 beta[38]
   - 2.27412e-11 beta[39] + 5.91206e-08 beta[40] + 7.00969e-09 beta[41]
   + 8.01164e-10 beta[42] - 3.02663e-11 beta[43] - 1.6875e-10 beta[44]
   - 2.02595e-10 beta[45] - 1.82575e-10 beta[46] - 1.27228e-10 beta[47]
   + 7.27469e-09 beta[48] - 2.61061e-09 beta[49] + 9.56336e-10 beta[50]
   + 9.34046e-10 beta[51] + 4.83556e-10 beta[52] + 1.26947e-10 beta[53]
   - 9.3961e-11 beta[54] - 1.94133e-10 beta[55] - 1.78952e-07 beta[56]
   - 1.08294e-08 beta[57] - 5.8584e-10 beta[58] + 3.90011e-10 beta[59]
   + 5.19009e-10 beta[60] + 3.95934e-10 beta[61] + 1.74113e-10 beta[62]
   - 3.9962e-11 beta[63] + 2.21599e-07 beta[64] + 2.00431e-08 beta[65]
   + 1.10659e-09 beta[66] + 2.47991e-10 beta[67] + 8.64042e-10 beta[68]
   + 1.20108e-09 beta[69] + 1.19507e-09 beta[70] + 9.84244e-10 beta[71]
   - 5.2305e-08 beta[72] - 2.02703e-08 beta[73] - 6.28791e-09 beta[74]
   - 2.63712e-09 beta[75] - 9.72713e-10 beta[76] + 2.01709e-10 beta[77]
   + 9.89697e-10 beta[78] + 1.4026e-09 beta[79] - 6.04182e-08 beta[80]
   + 2.1773e-09 beta[81] - 4.25763e-09 beta[82] - 7.59208e-09 beta[83]
   - 7.61071e-09 beta[84] - 6.31836e-09 beta[85] - 4.66901e-09 beta[86]
   - 3.11793e-09 beta[87] + 1.98452e-07 beta[88] + 3.41103e-08 beta[89]
   + 1.36296e-08 beta[90] + 3.64494e-09 beta[91] - 2.48453e-09 beta[92]
   - 5.72109e-09 beta[93] - 6.93846e-09 beta[94] - 6.91303e-09 beta[95]
   - 2.6404e-10 beta[96] - 4.39088e-11 beta[97] + 1.41533e-10 beta[98]
   + 2.24778e-10 beta[99] + 1.0737e-10 beta[100] - 4.95744e-11 beta[101]
   - 1.37715e-10 beta[102] - 1.3896e-10 beta[103] + 4.58636e-10 beta[104]
   + 9.1793e-11 beta[105] + 1.18637e-10 beta[106] + 1.92436e-10 beta[107]
   + 1.33738e-10 beta[108] + 2.20799e-11 beta[109] - 5.94882e-11 beta[110]
   - 8.31425e-11 beta[111] + 1.24244e-09 beta[112] - 3.94062e-10 beta[113]
   - 1.73043e-10 beta[114] + 1.42477e-11 beta[115] + 7.94284e-11 beta[116]
   + 5.98308e-11 beta[117] + 9.93246e-12 beta[118] - 3.14935e-11 beta[119]
   - 6.46977e-09 beta[120] - 1.49127e-09 beta[121] - 5.17758e-10 beta[122]
   - 2.22848e-10 beta[123] - 6.17272e-11 beta[124] + 1.29845e-11 beta[125]
   + 1.69853e-11 beta[126] - 1.81821e-11 beta[127] + 2.39006e-09 beta[128]
   + 2.32193e-09 beta[129] + 6.76581e-10 beta[130] + 9.06969e-11 beta[131]
   + 1.55947e-11 beta[132] + 6.38535e-11 beta[133] + 9.05564e-11 beta[134]
   + 6.71885e-11 beta[135] + 2.32085e-08 beta[136] + 3.42899e-09 beta[137]
   + 6.45093e-10 beta[138] + 1.7546e-10 beta[139] + 1.36503e-10 beta[140]
   + 2.00558e-10 beta[141] + 2.60806e-10 beta[142] + 2.73819e-10 beta[143]
   - 2.45404e-08 beta[144] - 7.14878e-09 beta[145] - 1.94763e-09 beta[146]
   - 5.24886e-10 beta[147] - 1.34444e-10 beta[148] + 5.55727e-11 beta[149]
   + 2.15552e-10 beta[150] + 3.42252e-10 beta[151] - 3.59456e-08 beta[152]
   - 1.71244e-09 beta[153] + 4.38481e-10 beta[154] - 7.71181e-11 beta[155]
   - 4.19625e-10 beta[156] - 4.53481e-10 beta[157] - 2.99264e-10 beta[158]
   - 6.56489e-11 beta[159] + 2.9832e-08 beta[160] + 4.60376e-09 beta[161]
   + 1.26369e-10 beta[162] - 7.93224e-10 beta[163] - 1.13968e-09 beta[164]
   - 1.30482e-09 beta[165] - 1.30663e-09 beta[166] - 1.15705e-09 beta[167]
   + 7.90643e-08 beta[168] + 8.02788e-09 beta[169] + 1.85156e-10 beta[170]
   - 6.05705e-10 beta[171] - 9.77865e-10 beta[172] - 1.48131e-09 beta[173]
   - 1.95616e-09 beta[174] - 2.27191e-09 beta[175] + 4.46585e-08 beta[176]
   + 1.37851e-08 beta[177] + 7.54463e-09 beta[178] + 5.09201e-09 beta[179]
   + 3.72582e-09 beta[180] + 2.5448e-09 beta[181] + 1.38608e-09 beta[182]
   + 3.04649e-10 beta[183] - 2.74257e-07 beta[184] - 4.86914e-08 beta[185]
   - 2.70022e-09 beta[186] + 7.70666e-09 beta[187] + 1.03283e-08 beta[188]
   + 1.06854e-08 beta[189] + 1.0094e-08 beta[190] + 9.01948e-09 beta[191]
   + 1.79125e-11 beta[192] + 1.80246e-11 beta[193] + 1.4815e-10 beta[194]
   - 1.37249e-11 beta[195] - 6.89405e-10 beta[196] - 4.82777e-10 beta[197]
   + 1.80051e-09 beta[198] + 2.99593e-09 beta[199] + 3.48439e-10 beta[200]
   - 4.638e-11 beta[201] - 3.19967e-10 beta[202] + 8.27826e-11 beta[203]
   + 7.97829e-10 beta[204] + 2.95766e-10 beta[205] - 1.92093e-09 beta[206]
   - 2.52888e-09 beta[207] + 6.04282e-10 beta[208] + 1.19459e-10 beta[209]
   - 1.69102e-10 beta[210] - 2.36342e-10 beta[211] - 4.01324e-10 beta[212]
   + 7.67957e-11 beta[213] + 1.6431e-09 beta[214] + 1.62291e-09 beta[215]
   - 3.07578e-09 beta[216] - 2.52927e-10 beta[217] + 1.46138e-09 beta[218]
   + 5.02498e-10 beta[219] - 6.87308e-10 beta[220] - 6.77755e-10 beta[221]
   - 6.76713e-10 beta[222] - 2.04536e-10 beta[223] - 4.11993e-09 beta[224]
   - 4.142e-10 beta[225] + 1.93707e-09 beta[226] + 4.12689e-10 beta[227]
   - 1.46895e-09 beta[228] - 1.21009e-10 beta[229] + 2.01775e-09 beta[230]
   + 1.81688e-10 beta[231] + 1.41732e-08 beta[232] + 1.06936e-09 beta[233]
   - 6.82693e-09 beta[234] - 1.36041e-09 beta[235] + 4.80702e-09 beta[236]
   + 1.04796e-09 beta[237] - 4.30677e-09 beta[238] - 3.40567e-10 beta[239]
   + 5.71068e-09 beta[240] + 1.16892e-09 beta[241] - 2.78708e-09 beta[242]
   - 1.89497e-09 beta[243] + 1.98454e-09 beta[244] + 2.98197e-09 beta[245]
   - 1.06012e-09 beta[246] - 4.88445e-09 beta[247] - 3.50918e-08 beta[248]
   - 4.1957e-09 beta[249] + 1.70775e-08 beta[250] + 6.27795e-09 beta[251]
   - 1.21893e-08 beta[252] - 8.27306e-09 beta[253] + 9.30135e-09 beta[254]
   + 1.13581e-08 beta[255] + 1.32547e-08 beta[256] + 1.05539e-09 beta[257]
   - 6.83879e-09 beta[258] - 1.5982e-09 beta[259] + 5.83552e-09 beta[260]
   + 2.58041e-09 beta[261] - 6.14426e-09 beta[262] - 5.49115e-09 beta[263]
   + 4.31832e-08 beta[264] + 8.05745e-09 beta[265] - 1.97133e-08 beta[266]
   - 1.18764e-08 beta[267] + 1.11005e-08 beta[268] + 1.38506e-08 beta[269]
   - 3.71082e-09 beta[270] - 1.26893e-08 beta[271] - 5.96697e-08 beta[272]
   - 1.11442e-08 beta[273] + 2.78461e-08 beta[274] + 1.67198e-08 beta[275]
   - 1.69136e-08 beta[276] - 2.05158e-08 beta[277] + 7.62699e-09 beta[278]
   + 2.1439e-08 beta[279] - 9.8355e-09 beta[280] - 2.3131e-09 beta[281]
   + 3.39081e-09 beta[282] + 2.46438e-09 beta[283] - 5.29738e-10 beta[284]
   - 9.81803e-10 beta[285] - 1.21896e-10 beta[286] - 7.81524e-10 beta[287]
   >= -2.3904e-05
 R622: - 2.20635e-07 beta[0] - 1.84148e-08 beta[1] + 6.12284e-08 beta[2]
   + 5.39263e-08 beta[3] + 2.88529e-08 beta[4] + 1.2677e-08 beta[5]
   + 4.80352e-09 beta[6] + 1.53555e-09 beta[7] + 4.03409e-07 beta[8]
   - 2.64254e-07 beta[9] - 1.61418e-07 beta[10] - 6.78799e-08 beta[11]
   - 2.56166e-08 beta[12] - 8.5582e-09 beta[13] - 2.4743e-09 beta[14]
   - 5.45519e-10 beta[15] - 9.6198e-07 beta[16] + 4.26177e-08 beta[17]
   - 1.6429e-09 beta[18] - 8.00793e-09 beta[19] - 7.75672e-09 beta[20]
   - 4.74297e-09 beta[21] - 2.3406e-09 beta[22] - 1.04754e-09 beta[23]
   + 1.46046e-06 beta[24] + 9.31398e-07 beta[25] + 3.71452e-07 beta[26]
   + 1.36706e-07 beta[27] + 4.77125e-08 beta[28] + 1.54804e-08 beta[29]
   + 4.66998e-09 beta[30] + 1.29672e-09 beta[31] + 3.18334e-06 beta[32]
   - 1.07815e-06 beta[33] - 3.46422e-07 beta[34] - 1.00864e-07 beta[35]
   - 2.44335e-08 beta[36] - 4.51422e-09 beta[37] - 1.68974e-10 beta[38]
   + 5.27477e-10 beta[39] + 3.45915e-07 beta[40] - 6.03345e-07 beta[41]
   - 3.44462e-07 beta[42] - 1.47045e-07 beta[43] - 5.33539e-08 beta[44]
   - 1.7459e-08 beta[45] - 5.57344e-09 beta[46] - 2.0209e-09 beta[47]
   - 1.35983e-05 beta[48] + 2.57079e-06 beta[49] + 8.73308e-07 beta[50]
   + 2.52799e-07 beta[51] + 6.71905e-08 beta[52] + 1.7257e-08 beta[53]
   + 4.71213e-09 beta[54] + 1.68403e-09 beta[55] - 1.23096e-05 beta[56]
   - 1.44986e-06 beta[57] - 5.76727e-08 beta[58] + 5.44312e-08 beta[59]
   + 2.58409e-08 beta[60] + 7.26197e-09 beta[61] + 1.22646e-09 beta[62]
   + 3.97293e-11 beta[63] + 3.95826e-05 beta[64] - 3.5913e-06 beta[65]
   - 1.28478e-06 beta[66] - 3.51084e-07 beta[67] - 8.93805e-08 beta[68]
   - 2.32422e-08 beta[69] - 7.83471e-09 beta[70] - 4.4907e-09 beta[71]
   + 3.11257e-05 beta[72] + 4.33229e-06 beta[73] + 6.46682e-07 beta[74]
   + 9.83732e-08 beta[75] + 2.5742e-08 beta[76] + 1.57158e-08 beta[77]
   + 1.20147e-08 beta[78] + 8.98469e-09 beta[79] - 7.49981e-05 beta[80]
   + 3.88519e-06 beta[81] + 1.36262e-06 beta[82] + 3.14657e-07 beta[83]
   + 5.86951e-08 beta[84] + 5.38087e-09 beta[85] - 2.0299e-09 beta[86]
   - 8.3936e-10 beta[87] - 4.7472e-05 beta[88] - 6.5874e-06 beta[89]
   - 1.03802e-06 beta[90] - 1.8206e-07 beta[91] - 5.33227e-08 beta[92]
   - 3.21673e-08 beta[93] - 2.58196e-08 beta[94] - 2.12949e-08 beta[95]
   - 1.13324e-07 beta[96] + 2.57909e-08 beta[97] - 3.17306e-08 beta[98]
   - 1.62882e-08 beta[99] - 6.72421e-09 beta[100] - 3.27727e-09 beta[101]
   - 1.87526e-09 beta[102] - 1.21819e-09 beta[103] - 1.193e-07 beta[104]
   + 4.64987e-08 beta[105] - 1.23376e-08 beta[106] - 8.34203e-09 beta[107]
   - 3.88991e-09 beta[108] - 2.17861e-09 beta[109] - 1.33648e-09 beta[110]
   - 7.79147e-10 beta[111] - 4.4259e-08 beta[112] + 6.9666e-08 beta[113]
   + 2.27464e-08 beta[114] + 8.84845e-09 beta[115] + 4.01791e-09 beta[116]
   + 1.55243e-09 beta[117] + 2.16288e-10 beta[118] - 3.9e-10 beta[119]
   + 2.30868e-07 beta[120] + 2.00258e-08 beta[121] + 2.42337e-08 beta[122]
   + 1.14431e-08 beta[123] + 6.4398e-09 beta[124] + 4.33781e-09 beta[125]
   + 2.92656e-09 beta[126] + 1.91128e-09 beta[127] + 2.77029e-07 beta[128]
   - 7.83831e-08 beta[129] - 1.77664e-08 beta[130] - 1.01228e-08 beta[131]
   - 5.33141e-09 beta[132] - 1.42797e-09 beta[133] + 6.71038e-10 beta[134]
   + 1.41065e-09 beta[135] - 7.15738e-07 beta[136] - 8.02082e-08 beta[137]
   - 1.59141e-08 beta[138] - 9.06786e-09 beta[139] - 8.02849e-09 beta[140]
   - 5.99067e-09 beta[141] - 3.82799e-09 beta[142] - 2.29012e-09 beta[143]
   - 1.51473e-06 beta[144] - 4.8472e-08 beta[145] + 1.07819e-08 beta[146]
   + 1.35888e-08 beta[147] + 5.26481e-09 beta[148] - 5.58131e-10 beta[149]
   - 2.65409e-09 beta[150] - 2.67435e-09 beta[151] + 9.88636e-07 beta[152]
   - 2.68026e-08 beta[153] - 2.31027e-08 beta[154] + 3.81818e-09 beta[155]
   + 7.70263e-09 beta[156] + 4.1156e-09 beta[157] + 4.54215e-10 beta[158]
   - 1.67269e-09 beta[159] + 4.16831e-06 beta[160] + 1.82668e-07 beta[161]
   - 1.2594e-08 beta[162] - 4.72836e-09 beta[163] + 9.28236e-09 beta[164]
   + 1.37643e-08 beta[165] + 1.25577e-08 beta[166] + 9.4614e-09 beta[167]
   + 8.45724e-08 beta[168] + 2.55311e-07 beta[169] + 4.55492e-08 beta[170]
   - 1.08389e-08 beta[171] - 9.04707e-09 beta[172] + 1.09066e-09 beta[173]
   + 8.10339e-09 beta[174] + 1.13944e-08 beta[175] - 6.7421e-06 beta[176]
   - 1.64909e-07 beta[177] + 1.20306e-09 beta[178] - 4.27046e-08 beta[179]
   - 5.64734e-08 beta[180] - 5.2159e-08 beta[181] - 4.254e-08 beta[182]
   - 3.29508e-08 beta[183] - 1.81793e-06 beta[184] - 3.03219e-07 beta[185]
   + 1.35199e-08 beta[186] + 4.8282e-08 beta[187] + 2.56559e-08 beta[188]
   + 4.39509e-09 beta[189] - 8.07355e-09 beta[190] - 1.41224e-08 beta[191]
   + 2.39024e-08 beta[192] - 8.4979e-09 beta[193] - 3.58695e-08 beta[194]
   - 7.00003e-10 beta[195] + 5.6364e-08 beta[196] + 1.14324e-08 beta[197]
   - 9.23441e-08 beta[198] - 4.49683e-08 beta[199] - 3.88091e-08 beta[200]
   + 9.23014e-09 beta[201] + 4.04454e-08 beta[202] - 6.39335e-10 beta[203]
   - 5.34527e-08 beta[204] - 7.52214e-09 beta[205] + 7.9886e-08 beta[206]
   + 3.25038e-08 beta[207] - 2.55416e-08 beta[208] - 1.48601e-08 beta[209]
   - 2.53646e-09 beta[210] + 9.71313e-09 beta[211] + 1.31649e-08 beta[212]
   - 7.46354e-09 beta[213] - 2.79383e-08 beta[214] - 2.54401e-09 beta[215]
   - 7.91168e-08 beta[216] + 2.08276e-08 beta[217] + 4.75457e-08 beta[218]
   - 2.00037e-08 beta[219] - 3.32413e-08 beta[220] + 2.41986e-08 beta[221]
   + 2.43177e-08 beta[222] - 2.85938e-08 beta[223] + 3.18889e-07 beta[224]
   - 1.1026e-08 beta[225] - 1.60133e-07 beta[226] + 7.98043e-09 beta[227]
   + 1.06643e-07 beta[228] - 1.29348e-08 beta[229] - 7.1419e-08 beta[230]
   + 2.19599e-08 beta[231] + 1.72237e-07 beta[232] - 1.15781e-08 beta[233]
   - 9.16411e-08 beta[234] + 2.11497e-08 beta[235] + 8.79448e-08 beta[236]
   - 1.84821e-08 beta[237] - 9.31312e-08 beta[238] + 1.26637e-08 beta[239]
   - 1.31254e-06 beta[240] + 2.31456e-08 beta[241] + 6.66146e-07 beta[242]
   - 3.20735e-08 beta[243] - 5.19356e-07 beta[244] + 2.50122e-08 beta[245]
   + 4.44538e-07 beta[246] - 1.86507e-08 beta[247] + 5.24663e-07 beta[248]
   - 3.46141e-08 beta[249] - 2.72918e-07 beta[250] + 4.4502e-08 beta[251]
   + 2.20476e-07 beta[252] - 3.49892e-08 beta[253] - 1.83333e-07 beta[254]
   + 2.87095e-08 beta[255] + 3.09424e-06 beta[256] + 3.69354e-08 beta[257]
   - 1.5425e-06 beta[258] - 4.98534e-08 beta[259] + 1.15062e-06 beta[260]
   + 4.53939e-08 beta[261] - 9.6984e-07 beta[262] - 4.53315e-08 beta[263]
   - 2.79822e-06 beta[264] + 2.55831e-08 beta[265] + 1.40879e-06 beta[266]
   - 3.3576e-08 beta[267] - 1.0672e-06 beta[268] + 4.25097e-08 beta[269]
   + 9.09205e-07 beta[270] - 4.33026e-08 beta[271] - 4.44223e-06 beta[272]
   - 1.39463e-07 beta[273] + 2.19504e-06 beta[274] + 1.90338e-07 beta[275]
   - 1.6187e-06 beta[276] - 2.16934e-07 beta[277] + 1.32582e-06 beta[278]
   + 2.31376e-07 beta[279] + 7.20116e-06 beta[280] + 1.06179e-07 beta[281]
   - 3.5699e-06 beta[282] - 1.31242e-07 beta[283] + 2.65026e-06 beta[284]
   + 1.29909e-07 beta[285] - 2.20038e-06 beta[286] - 1.26279e-07 beta[287]
   <= 2.3904e-05
 R623: - 2.20635e-07 beta[0] - 1.84148e-08 beta[1] + 6.12284e-08 beta[2]
   + 5.39263e-08 beta[3] + 2.88529e-08 beta[4] + 1.2677e-08 beta[5]
   + 4.80352e-09 beta[6] + 1.53555e-09 beta[7] + 4.03409e-07 beta[8]
   - 2.64254e-07 beta[9] - 1.61418e-07 beta[10] - 6.78799e-08 beta[11]
   - 2.56166e-08 beta[12] - 8.5582e-09 beta[13] - 2.4743e-09 beta[14]
   - 5.45519e-10 beta[15] - 9.6198e-07 beta[16] + 4.26177e-08 beta[17]
   - 1.6429e-09 beta[18] - 8.00793e-09 beta[19] - 7.75672e-09 beta[20]
   - 4.74297e-09 beta[21] - 2.3406e-09 beta[22] - 1.04754e-09 beta[23]
   + 1.46046e-06 beta[24] + 9.31398e-07 beta[25] + 3.71452e-07 beta[26]
   + 1.36706e-07 beta[27] + 4.77125e-08 beta[28] + 1.54804e-08 beta[29]
   + 4.66998e-09 beta[30] + 1.29672e-09 beta[31] + 3.18334e-06 beta[32]
   - 1.07815e-06 beta[33] - 3.46422e-07 beta[34] - 1.00864e-07 beta[35]
   - 2.44335e-08 beta[36] - 4.51422e-09 beta[37] - 1.68974e-10 beta[38]
   + 5.27477e-10 beta[39] + 3.45915e-07 beta[40] - 6.03345e-07 beta[41]
   - 3.44462e-07 beta[42] - 1.47045e-07 beta[43] - 5.33539e-08 beta[44]
   - 1.7459e-08 beta[45] - 5.57344e-09 beta[46] - 2.0209e-09 beta[47]
   - 1.35983e-05 beta[48] + 2.57079e-06 beta[49] + 8.73308e-07 beta[50]
   + 2.52799e-07 beta[51] + 6.71905e-08 beta[52] + 1.7257e-08 beta[53]
   + 4.71213e-09 beta[54] + 1.68403e-09 beta[55] - 1.23096e-05 beta[56]
   - 1.44986e-06 beta[57] - 5.76727e-08 beta[58] + 5.44312e-08 beta[59]
   + 2.58409e-08 beta[60] + 7.26197e-09 beta[61] + 1.22646e-09 beta[62]
   + 3.97293e-11 beta[63] + 3.95826e-05 beta[64] - 3.5913e-06 beta[65]
   - 1.28478e-06 beta[66] - 3.51084e-07 beta[67] - 8.93805e-08 beta[68]
   - 2.32422e-08 beta[69] - 7.83471e-09 beta[70] - 4.4907e-09 beta[71]
   + 3.11257e-05 beta[72] + 4.33229e-06 beta[73] + 6.46682e-07 beta[74]
   + 9.83732e-08 beta[75] + 2.5742e-08 beta[76] + 1.57158e-08 beta[77]
   + 1.20147e-08 beta[78] + 8.98469e-09 beta[79] - 7.49981e-05 beta[80]
   + 3.88519e-06 beta[81] + 1.36262e-06 beta[82] + 3.14657e-07 beta[83]
   + 5.86951e-08 beta[84] + 5.38087e-09 beta[85] - 2.0299e-09 beta[86]
   - 8.3936e-10 beta[87] - 4.7472e-05 beta[88] - 6.5874e-06 beta[89]
   - 1.03802e-06 beta[90] - 1.8206e-07 beta[91] - 5.33227e-08 beta[92]
   - 3.21673e-08 beta[93] - 2.58196e-08 beta[94] - 2.12949e-08 beta[95]
   - 1.13324e-07 beta[96] + 2.57909e-08 beta[97] - 3.17306e-08 beta[98]
   - 1.62882e-08 beta[99] - 6.72421e-09 beta[100] - 3.27727e-09 beta[101]
   - 1.87526e-09 beta[102] - 1.21819e-09 beta[103] - 1.193e-07 beta[104]
   + 4.64987e-08 beta[105] - 1.23376e-08 beta[106] - 8.34203e-09 beta[107]
   - 3.88991e-09 beta[108] - 2.17861e-09 beta[109] - 1.33648e-09 beta[110]
   - 7.79147e-10 beta[111] - 4.4259e-08 beta[112] + 6.9666e-08 beta[113]
   + 2.27464e-08 beta[114] + 8.84845e-09 beta[115] + 4.01791e-09 beta[116]
   + 1.55243e-09 beta[117] + 2.16288e-10 beta[118] - 3.9e-10 beta[119]
   + 2.30868e-07 beta[120] + 2.00258e-08 beta[121] + 2.42337e-08 beta[122]
   + 1.14431e-08 beta[123] + 6.4398e-09 beta[124] + 4.33781e-09 beta[125]
   + 2.92656e-09 beta[126] + 1.91128e-09 beta[127] + 2.77029e-07 beta[128]
   - 7.83831e-08 beta[129] - 1.77664e-08 beta[130] - 1.01228e-08 beta[131]
   - 5.33141e-09 beta[132] - 1.42797e-09 beta[133] + 6.71038e-10 beta[134]
   + 1.41065e-09 beta[135] - 7.15738e-07 beta[136] - 8.02082e-08 beta[137]
   - 1.59141e-08 beta[138] - 9.06786e-09 beta[139] - 8.02849e-09 beta[140]
   - 5.99067e-09 beta[141] - 3.82799e-09 beta[142] - 2.29012e-09 beta[143]
   - 1.51473e-06 beta[144] - 4.8472e-08 beta[145] + 1.07819e-08 beta[146]
   + 1.35888e-08 beta[147] + 5.26481e-09 beta[148] - 5.58131e-10 beta[149]
   - 2.65409e-09 beta[150] - 2.67435e-09 beta[151] + 9.88636e-07 beta[152]
   - 2.68026e-08 beta[153] - 2.31027e-08 beta[154] + 3.81818e-09 beta[155]
   + 7.70263e-09 beta[156] + 4.1156e-09 beta[157] + 4.54215e-10 beta[158]
   - 1.67269e-09 beta[159] + 4.16831e-06 beta[160] + 1.82668e-07 beta[161]
   - 1.2594e-08 beta[162] - 4.72836e-09 beta[163] + 9.28236e-09 beta[164]
   + 1.37643e-08 beta[165] + 1.25577e-08 beta[166] + 9.4614e-09 beta[167]
   + 8.45724e-08 beta[168] + 2.55311e-07 beta[169] + 4.55492e-08 beta[170]
   - 1.08389e-08 beta[171] - 9.04707e-09 beta[172] + 1.09066e-09 beta[173]
   + 8.10339e-09 beta[174] + 1.13944e-08 beta[175] - 6.7421e-06 beta[176]
   - 1.64909e-07 beta[177] + 1.20306e-09 beta[178] - 4.27046e-08 beta[179]
   - 5.64734e-08 beta[180] - 5.2159e-08 beta[181] - 4.254e-08 beta[182]
   - 3.29508e-08 beta[183] - 1.81793e-06 beta[184] - 3.03219e-07 beta[185]
   + 1.35199e-08 beta[186] + 4.8282e-08 beta[187] + 2.56559e-08 beta[188]
   + 4.39509e-09 beta[189] - 8.07355e-09 beta[190] - 1.41224e-08 beta[191]
   + 2.39024e-08 beta[192] - 8.4979e-09 beta[193] - 3.58695e-08 beta[194]
   - 7.00003e-10 beta[195] + 5.6364e-08 beta[196] + 1.14324e-08 beta[197]
   - 9.23441e-08 beta[198] - 4.49683e-08 beta[199] - 3.88091e-08 beta[200]
   + 9.23014e-09 beta[201] + 4.04454e-08 beta[202] - 6.39335e-10 beta[203]
   - 5.34527e-08 beta[204] - 7.52214e-09 beta[205] + 7.9886e-08 beta[206]
   + 3.25038e-08 beta[207] - 2.55416e-08 beta[208] - 1.48601e-08 beta[209]
   - 2.53646e-09 beta[210] + 9.71313e-09 beta[211] + 1.31649e-08 beta[212]
   - 7.46354e-09 beta[213] - 2.79383e-08 beta[214] - 2.54401e-09 beta[215]
   - 7.91168e-08 beta[216] + 2.08276e-08 beta[217] + 4.75457e-08 beta[218]
   - 2.00037e-08 beta[219] - 3.32413e-08 beta[220] + 2.41986e-08 beta[221]
   + 2.43177e-08 beta[222] - 2.85938e-08 beta[223] + 3.18889e-07 beta[224]
   - 1.1026e-08 beta[225] - 1.60133e-07 beta[226] + 7.98043e-09 beta[227]
   + 1.06643e-07 beta[228] - 1.29348e-08 beta[229] - 7.1419e-08 beta[230]
   + 2.19599e-08 beta[231] + 1.72237e-07 beta[232] - 1.15781e-08 beta[233]
   - 9.16411e-08 beta[234] + 2.11497e-08 beta[235] + 8.79448e-08 beta[236]
   - 1.84821e-08 beta[237] - 9.31312e-08 beta[238] + 1.26637e-08 beta[239]
   - 1.31254e-06 beta[240] + 2.31456e-08 beta[241] + 6.66146e-07 beta[242]
   - 3.20735e-08 beta[243] - 5.19356e-07 beta[244] + 2.50122e-08 beta[245]
   + 4.44538e-07 beta[246] - 1.86507e-08 beta[247] + 5.24663e-07 beta[248]
   - 3.46141e-08 beta[249] - 2.72918e-07 beta[250] + 4.4502e-08 beta[251]
   + 2.20476e-07 beta[252] - 3.49892e-08 beta[253] - 1.83333e-07 beta[254]
   + 2.87095e-08 beta[255] + 3.09424e-06 beta[256] + 3.69354e-08 beta[257]
   - 1.5425e-06 beta[258] - 4.98534e-08 beta[259] + 1.15062e-06 beta[260]
   + 4.53939e-08 beta[261] - 9.6984e-07 beta[262] - 4.53315e-08 beta[263]
   - 2.79822e-06 beta[264] + 2.55831e-08 beta[265] + 1.40879e-06 beta[266]
   - 3.3576e-08 beta[267] - 1.0672e-06 beta[268] + 4.25097e-08 beta[269]
   + 9.09205e-07 beta[270] - 4.33026e-08 beta[271] - 4.44223e-06 beta[272]
   - 1.39463e-07 beta[273] + 2.19504e-06 beta[274] + 1.90338e-07 beta[275]
   - 1.6187e-06 beta[276] - 2.16934e-07 beta[277] + 1.32582e-06 beta[278]
   + 2.31376e-07 beta[279] + 7.20116e-06 beta[280] + 1.06179e-07 beta[281]
   - 3.5699e-06 beta[282] - 1.31242e-07 beta[283] + 2.65026e-06 beta[284]
   + 1.29909e-07 beta[285] - 2.20038e-06 beta[286] - 1.26279e-07 beta[287]
   >= -2.3904e-05
 R624: - 2.55033e-07 beta[0] - 5.84135e-08 beta[1] + 7.22653e-08 beta[2]
   + 6.02678e-08 beta[3] + 2.66493e-08 beta[4] + 1.0187e-08 beta[5]
   + 3.56253e-09 beta[6] + 9.62409e-10 beta[7] + 4.15933e-07 beta[8]
   - 1.74164e-07 beta[9] - 9.07154e-08 beta[10] - 1.91688e-08 beta[11]
   - 5.08737e-09 beta[12] - 1.63095e-09 beta[13] - 2.9848e-10 beta[14]
   + 2.11273e-10 beta[15] - 4.91378e-07 beta[16] - 1.36978e-07 beta[17]
   - 1.80836e-07 beta[18] - 7.93407e-08 beta[19] - 2.95972e-08 beta[20]
   - 1.11363e-08 beta[21] - 4.46383e-09 beta[22] - 1.92476e-09 beta[23]
   + 1.20572e-06 beta[24] + 1.06688e-06 beta[25] + 3.24852e-07 beta[26]
   + 8.82578e-08 beta[27] + 2.66014e-08 beta[28] + 8.93102e-09 beta[29]
   + 3.43587e-09 beta[30] + 1.66157e-09 beta[31] + 1.50282e-06 beta[32]
   + 2.83697e-07 beta[33] + 2.25423e-07 beta[34] + 9.4927e-08 beta[35]
   + 3.90369e-08 beta[36] + 1.58505e-08 beta[37] + 5.81239e-09 beta[38]
   + 1.4869e-09 beta[39] - 7.73979e-06 beta[40] - 2.09008e-06 beta[41]
   - 5.6787e-07 beta[42] - 1.74716e-07 beta[43] - 5.90764e-08 beta[44]
   - 2.0687e-08 beta[45] - 7.19009e-09 beta[46] - 2.28729e-09 beta[47]
   - 5.75114e-06 beta[48] - 4.18421e-07 beta[49] - 1.98893e-07 beta[50]
   - 1.08598e-07 beta[51] - 5.63644e-08 beta[52] - 2.57912e-08 beta[53]
   - 9.9342e-09 beta[54] - 2.74968e-09 beta[55] + 1.40372e-05 beta[56]
   + 1.70308e-06 beta[57] + 5.81677e-07 beta[58] + 2.49707e-07 beta[59]
   + 1.06618e-07 beta[60] + 4.28057e-08 beta[61] + 1.5235e-08 beta[62]
   + 3.80083e-09 beta[63] + 2.09084e-05 beta[64] + 2.32722e-06 beta[65]
   + 6.68995e-07 beta[66] + 2.71693e-07 beta[67] + 1.13534e-07 beta[68]
   + 4.56909e-08 beta[69] + 1.81053e-08 beta[70] + 7.87577e-09 beta[71]
   - 2.16534e-05 beta[72] - 1.62138e-06 beta[73] - 9.79512e-07 beta[74]
   - 5.10707e-07 beta[75] - 2.2974e-07 beta[76] - 9.57529e-08 beta[77]
   - 3.82423e-08 beta[78] - 1.5174e-08 beta[79] - 3.98908e-05 beta[80]
   - 7.12701e-06 beta[81] - 1.95684e-06 beta[82] - 6.12378e-07 beta[83]
   - 1.89413e-07 beta[84] - 5.45631e-08 beta[85] - 1.39596e-08 beta[86]
   - 3.35961e-09 beta[87] + 4.86587e-05 beta[88] + 7.46132e-06 beta[89]
   + 3.17448e-06 beta[90] + 1.293e-06 beta[91] + 4.9098e-07 beta[92]
   + 1.7956e-07 beta[93] + 6.60899e-08 beta[94] + 2.72071e-08 beta[95]
   - 3.37147e-07 beta[96] + 1.05183e-07 beta[97] - 4.50227e-08 beta[98]
   - 1.77597e-08 beta[99] - 2.68577e-09 beta[100] - 1.24184e-11 beta[101]
   - 7.14271e-11 beta[102] - 1.24452e-10 beta[103] - 3.24873e-07 beta[104]
   + 1.16252e-07 beta[105] - 2.93663e-08 beta[106] - 2.04369e-08 beta[107]
   - 8.53436e-09 beta[108] - 4.2146e-09 beta[109] - 2.73061e-09 beta[110]
   - 1.93252e-09 beta[111] - 2.4346e-07 beta[112] + 1.37593e-07 beta[113]
   + 2.47139e-08 beta[114] - 1.58194e-09 beta[115] - 3.39763e-09 beta[116]
   - 2.0357e-09 beta[117] - 1.22408e-09 beta[118] - 9.19838e-10 beta[119]
   - 7.01136e-08 beta[120] + 1.2296e-07 beta[121] + 9.68681e-08 beta[122]
   + 4.40935e-08 beta[123] + 2.13805e-08 beta[124] + 1.26244e-08 beta[125]
   + 8.22456e-09 beta[126] + 5.29957e-09 beta[127] - 2.72521e-07 beta[128]
   - 1.17198e-07 beta[129] + 3.32364e-08 beta[130] + 2.62748e-08 beta[131]
   + 1.3225e-08 beta[132] + 7.67771e-09 beta[133] + 5.62428e-09 beta[134]
   + 4.56518e-09 beta[135] - 8.82904e-07 beta[136] - 5.37714e-07 beta[137]
   - 2.01355e-07 beta[138] - 9.68264e-08 beta[139] - 5.8596e-08 beta[140]
   - 3.85495e-08 beta[141] - 2.52169e-08 beta[142] - 1.58647e-08 beta[143]
   + 1.71424e-07 beta[144] - 2.94068e-07 beta[145] - 1.35759e-07 beta[146]
   - 5.14615e-08 beta[147] - 2.37444e-08 beta[148] - 1.5997e-08 beta[149]
   - 1.32698e-08 beta[150] - 1.13941e-08 beta[151] + 3.20633e-06 beta[152]
   + 8.41297e-07 beta[153] + 3.70721e-07 beta[154] + 2.32392e-07 beta[155]
   + 1.57316e-07 beta[156] + 1.05436e-07 beta[157] + 6.91129e-08 beta[158]
   + 4.45238e-08 beta[159] + 2.13887e-06 beta[160] + 6.8959e-07 beta[161]
   + 1.46553e-07 beta[162] + 2.69057e-08 beta[163] + 8.10744e-09 beta[164]
   + 8.29423e-09 beta[165] + 9.59647e-09 beta[166] + 9.56639e-09 beta[167]
   - 4.10189e-06 beta[168] - 1.15795e-06 beta[169] - 7.67828e-07 beta[170]
   - 5.33261e-07 beta[171] - 3.53713e-07 beta[172] - 2.27948e-07 beta[173]
   - 1.45205e-07 beta[174] - 9.26759e-08 beta[175] - 3.19649e-06 beta[176]
   - 2.83845e-07 beta[177] + 1.30016e-07 beta[178] + 1.23372e-07 beta[179]
   + 7.83104e-08 beta[180] + 4.70074e-08 beta[181] + 2.94743e-08 beta[182]
   + 2.02433e-08 beta[183] + 4.14259e-06 beta[184] + 2.32918e-06 beta[185]
   + 1.64163e-06 beta[186] + 1.05288e-06 beta[187] + 6.41787e-07 beta[188]
   + 3.82757e-07 beta[189] + 2.26269e-07 beta[190] + 1.33527e-07 beta[191]
   + 1.32189e-08 beta[192] + 1.00894e-08 beta[193] - 3.27071e-08 beta[194]
   - 1.73938e-08 beta[195] + 7.5815e-08 beta[196] + 3.36922e-08 beta[197]
   - 1.35256e-07 beta[198] - 6.6217e-08 beta[199] - 1.12093e-08 beta[200]
   - 1.2276e-08 beta[201] + 2.53727e-08 beta[202] + 2.08244e-08 beta[203]
   - 5.72978e-08 beta[204] - 3.64068e-08 beta[205] + 9.99995e-08 beta[206]
   + 6.33956e-08 beta[207] + 1.28363e-08 beta[208] + 3.26362e-09 beta[209]
   - 1.59301e-08 beta[210] - 7.20533e-09 beta[211] + 2.89203e-08 beta[212]
   + 1.55904e-08 beta[213] - 4.39064e-08 beta[214] - 2.63142e-08 beta[215]
   - 3.88373e-08 beta[216] + 1.18757e-08 beta[217] + 1.73298e-08 beta[218]
   - 1.57487e-08 beta[219] - 5.51894e-09 beta[220] + 1.8168e-08 beta[221]
   - 1.33798e-08 beta[222] - 3.02672e-08 beta[223] - 4.88597e-09 beta[224]
   - 5.0998e-09 beta[225] + 1.40931e-08 beta[226] + 4.31814e-09 beta[227]
   - 3.89939e-08 beta[228] - 4.88207e-09 beta[229] + 8.49136e-08 beta[230]
   + 2.48445e-08 beta[231] + 1.33607e-07 beta[232] - 2.18392e-08 beta[233]
   - 7.66941e-08 beta[234] + 4.03422e-08 beta[235] + 8.50225e-08 beta[236]
   - 6.00351e-08 beta[237] - 1.27642e-07 beta[238] + 6.34392e-08 beta[239]
   - 1.34267e-07 beta[240] + 1.23424e-08 beta[241] + 5.74421e-08 beta[242]
   - 2.92116e-08 beta[243] - 3.23762e-08 beta[244] + 5.85571e-08 beta[245]
   + 2.97279e-08 beta[246] - 9.13681e-08 beta[247] - 1.78561e-07 beta[248]
   + 4.8644e-08 beta[249] + 1.16133e-07 beta[250] - 7.04993e-08 beta[251]
   - 1.40263e-07 beta[252] + 7.39101e-08 beta[253] + 1.90289e-07 beta[254]
   - 5.69291e-08 beta[255] + 5.9398e-07 beta[256] - 7.48793e-08 beta[257]
   - 3.01641e-07 beta[258] + 1.32022e-07 beta[259] + 2.56056e-07 beta[260]
   - 1.90391e-07 beta[261] - 2.84573e-07 beta[262] + 2.42286e-07 beta[263]
   + 3.23636e-07 beta[264] - 2.46047e-08 beta[265] - 2.08969e-07 beta[266]
   - 3.29819e-10 beta[267] + 2.11804e-07 beta[268] + 6.28537e-08 beta[269]
   - 2.07198e-07 beta[270] - 1.60058e-07 beta[271] - 1.23441e-06 beta[272]
   + 1.45178e-07 beta[273] + 6.74463e-07 beta[274] - 1.92086e-07 beta[275]
   - 5.91262e-07 beta[276] + 1.96139e-07 beta[277] + 5.94694e-07 beta[278]
   - 1.40889e-07 beta[279] - 3.28456e-07 beta[280] - 8.87361e-08 beta[281]
   + 1.67589e-07 beta[282] + 1.44316e-07 beta[283] - 1.22988e-07 beta[284]
   - 2.10709e-07 beta[285] + 4.73182e-08 beta[286] + 2.43477e-07 beta[287]
   <= 2.3904e-05
 R625: - 2.55033e-07 beta[0] - 5.84135e-08 beta[1] + 7.22653e-08 beta[2]
   + 6.02678e-08 beta[3] + 2.66493e-08 beta[4] + 1.0187e-08 beta[5]
   + 3.56253e-09 beta[6] + 9.62409e-10 beta[7] + 4.15933e-07 beta[8]
   - 1.74164e-07 beta[9] - 9.07154e-08 beta[10] - 1.91688e-08 beta[11]
   - 5.08737e-09 beta[12] - 1.63095e-09 beta[13] - 2.9848e-10 beta[14]
   + 2.11273e-10 beta[15] - 4.91378e-07 beta[16] - 1.36978e-07 beta[17]
   - 1.80836e-07 beta[18] - 7.93407e-08 beta[19] - 2.95972e-08 beta[20]
   - 1.11363e-08 beta[21] - 4.46383e-09 beta[22] - 1.92476e-09 beta[23]
   + 1.20572e-06 beta[24] + 1.06688e-06 beta[25] + 3.24852e-07 beta[26]
   + 8.82578e-08 beta[27] + 2.66014e-08 beta[28] + 8.93102e-09 beta[29]
   + 3.43587e-09 beta[30] + 1.66157e-09 beta[31] + 1.50282e-06 beta[32]
   + 2.83697e-07 beta[33] + 2.25423e-07 beta[34] + 9.4927e-08 beta[35]
   + 3.90369e-08 beta[36] + 1.58505e-08 beta[37] + 5.81239e-09 beta[38]
   + 1.4869e-09 beta[39] - 7.73979e-06 beta[40] - 2.09008e-06 beta[41]
   - 5.6787e-07 beta[42] - 1.74716e-07 beta[43] - 5.90764e-08 beta[44]
   - 2.0687e-08 beta[45] - 7.19009e-09 beta[46] - 2.28729e-09 beta[47]
   - 5.75114e-06 beta[48] - 4.18421e-07 beta[49] - 1.98893e-07 beta[50]
   - 1.08598e-07 beta[51] - 5.63644e-08 beta[52] - 2.57912e-08 beta[53]
   - 9.9342e-09 beta[54] - 2.74968e-09 beta[55] + 1.40372e-05 beta[56]
   + 1.70308e-06 beta[57] + 5.81677e-07 beta[58] + 2.49707e-07 beta[59]
   + 1.06618e-07 beta[60] + 4.28057e-08 beta[61] + 1.5235e-08 beta[62]
   + 3.80083e-09 beta[63] + 2.09084e-05 beta[64] + 2.32722e-06 beta[65]
   + 6.68995e-07 beta[66] + 2.71693e-07 beta[67] + 1.13534e-07 beta[68]
   + 4.56909e-08 beta[69] + 1.81053e-08 beta[70] + 7.87577e-09 beta[71]
   - 2.16534e-05 beta[72] - 1.62138e-06 beta[73] - 9.79512e-07 beta[74]
   - 5.10707e-07 beta[75] - 2.2974e-07 beta[76] - 9.57529e-08 beta[77]
   - 3.82423e-08 beta[78] - 1.5174e-08 beta[79] - 3.98908e-05 beta[80]
   - 7.12701e-06 beta[81] - 1.95684e-06 beta[82] - 6.12378e-07 beta[83]
   - 1.89413e-07 beta[84] - 5.45631e-08 beta[85] - 1.39596e-08 beta[86]
   - 3.35961e-09 beta[87] + 4.86587e-05 beta[88] + 7.46132e-06 beta[89]
   + 3.17448e-06 beta[90] + 1.293e-06 beta[91] + 4.9098e-07 beta[92]
   + 1.7956e-07 beta[93] + 6.60899e-08 beta[94] + 2.72071e-08 beta[95]
   - 3.37147e-07 beta[96] + 1.05183e-07 beta[97] - 4.50227e-08 beta[98]
   - 1.77597e-08 beta[99] - 2.68577e-09 beta[100] - 1.24184e-11 beta[101]
   - 7.14271e-11 beta[102] - 1.24452e-10 beta[103] - 3.24873e-07 beta[104]
   + 1.16252e-07 beta[105] - 2.93663e-08 beta[106] - 2.04369e-08 beta[107]
   - 8.53436e-09 beta[108] - 4.2146e-09 beta[109] - 2.73061e-09 beta[110]
   - 1.93252e-09 beta[111] - 2.4346e-07 beta[112] + 1.37593e-07 beta[113]
   + 2.47139e-08 beta[114] - 1.58194e-09 beta[115] - 3.39763e-09 beta[116]
   - 2.0357e-09 beta[117] - 1.22408e-09 beta[118] - 9.19838e-10 beta[119]
   - 7.01136e-08 beta[120] + 1.2296e-07 beta[121] + 9.68681e-08 beta[122]
   + 4.40935e-08 beta[123] + 2.13805e-08 beta[124] + 1.26244e-08 beta[125]
   + 8.22456e-09 beta[126] + 5.29957e-09 beta[127] - 2.72521e-07 beta[128]
   - 1.17198e-07 beta[129] + 3.32364e-08 beta[130] + 2.62748e-08 beta[131]
   + 1.3225e-08 beta[132] + 7.67771e-09 beta[133] + 5.62428e-09 beta[134]
   + 4.56518e-09 beta[135] - 8.82904e-07 beta[136] - 5.37714e-07 beta[137]
   - 2.01355e-07 beta[138] - 9.68264e-08 beta[139] - 5.8596e-08 beta[140]
   - 3.85495e-08 beta[141] - 2.52169e-08 beta[142] - 1.58647e-08 beta[143]
   + 1.71424e-07 beta[144] - 2.94068e-07 beta[145] - 1.35759e-07 beta[146]
   - 5.14615e-08 beta[147] - 2.37444e-08 beta[148] - 1.5997e-08 beta[149]
   - 1.32698e-08 beta[150] - 1.13941e-08 beta[151] + 3.20633e-06 beta[152]
   + 8.41297e-07 beta[153] + 3.70721e-07 beta[154] + 2.32392e-07 beta[155]
   + 1.57316e-07 beta[156] + 1.05436e-07 beta[157] + 6.91129e-08 beta[158]
   + 4.45238e-08 beta[159] + 2.13887e-06 beta[160] + 6.8959e-07 beta[161]
   + 1.46553e-07 beta[162] + 2.69057e-08 beta[163] + 8.10744e-09 beta[164]
   + 8.29423e-09 beta[165] + 9.59647e-09 beta[166] + 9.56639e-09 beta[167]
   - 4.10189e-06 beta[168] - 1.15795e-06 beta[169] - 7.67828e-07 beta[170]
   - 5.33261e-07 beta[171] - 3.53713e-07 beta[172] - 2.27948e-07 beta[173]
   - 1.45205e-07 beta[174] - 9.26759e-08 beta[175] - 3.19649e-06 beta[176]
   - 2.83845e-07 beta[177] + 1.30016e-07 beta[178] + 1.23372e-07 beta[179]
   + 7.83104e-08 beta[180] + 4.70074e-08 beta[181] + 2.94743e-08 beta[182]
   + 2.02433e-08 beta[183] + 4.14259e-06 beta[184] + 2.32918e-06 beta[185]
   + 1.64163e-06 beta[186] + 1.05288e-06 beta[187] + 6.41787e-07 beta[188]
   + 3.82757e-07 beta[189] + 2.26269e-07 beta[190] + 1.33527e-07 beta[191]
   + 1.32189e-08 beta[192] + 1.00894e-08 beta[193] - 3.27071e-08 beta[194]
   - 1.73938e-08 beta[195] + 7.5815e-08 beta[196] + 3.36922e-08 beta[197]
   - 1.35256e-07 beta[198] - 6.6217e-08 beta[199] - 1.12093e-08 beta[200]
   - 1.2276e-08 beta[201] + 2.53727e-08 beta[202] + 2.08244e-08 beta[203]
   - 5.72978e-08 beta[204] - 3.64068e-08 beta[205] + 9.99995e-08 beta[206]
   + 6.33956e-08 beta[207] + 1.28363e-08 beta[208] + 3.26362e-09 beta[209]
   - 1.59301e-08 beta[210] - 7.20533e-09 beta[211] + 2.89203e-08 beta[212]
   + 1.55904e-08 beta[213] - 4.39064e-08 beta[214] - 2.63142e-08 beta[215]
   - 3.88373e-08 beta[216] + 1.18757e-08 beta[217] + 1.73298e-08 beta[218]
   - 1.57487e-08 beta[219] - 5.51894e-09 beta[220] + 1.8168e-08 beta[221]
   - 1.33798e-08 beta[222] - 3.02672e-08 beta[223] - 4.88597e-09 beta[224]
   - 5.0998e-09 beta[225] + 1.40931e-08 beta[226] + 4.31814e-09 beta[227]
   - 3.89939e-08 beta[228] - 4.88207e-09 beta[229] + 8.49136e-08 beta[230]
   + 2.48445e-08 beta[231] + 1.33607e-07 beta[232] - 2.18392e-08 beta[233]
   - 7.66941e-08 beta[234] + 4.03422e-08 beta[235] + 8.50225e-08 beta[236]
   - 6.00351e-08 beta[237] - 1.27642e-07 beta[238] + 6.34392e-08 beta[239]
   - 1.34267e-07 beta[240] + 1.23424e-08 beta[241] + 5.74421e-08 beta[242]
   - 2.92116e-08 beta[243] - 3.23762e-08 beta[244] + 5.85571e-08 beta[245]
   + 2.97279e-08 beta[246] - 9.13681e-08 beta[247] - 1.78561e-07 beta[248]
   + 4.8644e-08 beta[249] + 1.16133e-07 beta[250] - 7.04993e-08 beta[251]
   - 1.40263e-07 beta[252] + 7.39101e-08 beta[253] + 1.90289e-07 beta[254]
   - 5.69291e-08 beta[255] + 5.9398e-07 beta[256] - 7.48793e-08 beta[257]
   - 3.01641e-07 beta[258] + 1.32022e-07 beta[259] + 2.56056e-07 beta[260]
   - 1.90391e-07 beta[261] - 2.84573e-07 beta[262] + 2.42286e-07 beta[263]
   + 3.23636e-07 beta[264] - 2.46047e-08 beta[265] - 2.08969e-07 beta[266]
   - 3.29819e-10 beta[267] + 2.11804e-07 beta[268] + 6.28537e-08 beta[269]
   - 2.07198e-07 beta[270] - 1.60058e-07 beta[271] - 1.23441e-06 beta[272]
   + 1.45178e-07 beta[273] + 6.74463e-07 beta[274] - 1.92086e-07 beta[275]
   - 5.91262e-07 beta[276] + 1.96139e-07 beta[277] + 5.94694e-07 beta[278]
   - 1.40889e-07 beta[279] - 3.28456e-07 beta[280] - 8.87361e-08 beta[281]
   + 1.67589e-07 beta[282] + 1.44316e-07 beta[283] - 1.22988e-07 beta[284]
   - 2.10709e-07 beta[285] + 4.73182e-08 beta[286] + 2.43477e-07 beta[287]
   >= -2.3904e-05
 R626: - 8.18162e-08 beta[0] + 3.49411e-08 beta[1] - 2.84339e-08 beta[2]
   - 1.0965e-08 beta[3] + 4.86238e-10 beta[4] + 2.42987e-09 beta[5]
   + 2.19888e-09 beta[6] + 1.78084e-09 beta[7] + 1.5039e-07 beta[8]
   + 4.49016e-08 beta[9] - 3.36819e-08 beta[10] - 2.62748e-08 beta[11]
   - 1.17454e-08 beta[12] - 5.02665e-09 beta[13] - 2.43682e-09 beta[14]
   - 1.36289e-09 beta[15] - 7.03689e-07 beta[16] + 1.74722e-07 beta[17]
   + 1.0782e-07 beta[18] + 3.75706e-08 beta[19] + 1.02919e-08 beta[20]
   + 2.18964e-09 beta[21] + 5.68296e-11 beta[22] - 3.98246e-10 beta[23]
   - 8.25409e-07 beta[24] - 1.53769e-07 beta[25] + 7.04072e-09 beta[26]
   + 1.77639e-08 beta[27] + 9.46137e-09 beta[28] + 4.64452e-09 beta[29]
   + 2.31735e-09 beta[30] + 1.09977e-09 beta[31] + 1.24227e-06 beta[32]
   - 7.15288e-07 beta[33] - 2.65933e-07 beta[34] - 7.84525e-08 beta[35]
   - 2.14621e-08 beta[36] - 4.90668e-09 beta[37] - 2.55794e-10 beta[38]
   + 8.52144e-10 beta[39] + 4.58161e-06 beta[40] + 1.09875e-06 beta[41]
   + 2.47225e-07 beta[42] + 5.6354e-08 beta[43] + 1.17031e-08 beta[44]
   + 1.4233e-09 beta[45] - 8.43603e-11 beta[46] + 3.2212e-10 beta[47]
   - 5.1977e-06 beta[48] + 4.5564e-07 beta[49] + 1.78375e-07 beta[50]
   + 4.23144e-08 beta[51] + 5.43734e-09 beta[52] - 4.79644e-09 beta[53]
   - 7.05096e-09 beta[54] - 6.67659e-09 beta[55] - 8.78059e-06 beta[56]
   - 2.1968e-06 beta[57] - 5.35143e-07 beta[58] - 1.29777e-07 beta[59]
   - 2.42796e-08 beta[60] + 1.43721e-09 beta[61] + 5.27044e-09 beta[62]
   + 4.02593e-09 beta[63] + 1.48724e-05 beta[64] + 1.25296e-06 beta[65]
   + 2.64596e-07 beta[66] + 8.5008e-08 beta[67] + 3.56522e-08 beta[68]
   + 2.25041e-08 beta[69] + 1.75632e-08 beta[70] + 1.40821e-08 beta[71]
   + 5.32139e-06 beta[72] + 1.98025e-06 beta[73] + 5.68472e-07 beta[74]
   + 1.22087e-07 beta[75] - 2.49697e-09 beta[76] - 2.83499e-08 beta[77]
   - 2.63011e-08 beta[78] - 1.89971e-08 beta[79] - 2.26385e-05 beta[80]
   - 3.4407e-06 beta[81] - 8.02876e-07 beta[82] - 2.04477e-07 beta[83]
   - 5.27409e-08 beta[84] - 1.96084e-08 beta[85] - 1.34132e-08 beta[86]
   - 1.16225e-08 beta[87] + 3.34132e-06 beta[88] - 9.42268e-07 beta[89]
   - 5.67863e-07 beta[90] - 1.15182e-07 beta[91] + 3.15022e-08 beta[92]
   + 5.85215e-08 beta[93] + 4.98206e-08 beta[94] + 3.53294e-08 beta[95]
   + 2.6806e-08 beta[96] - 9.63721e-09 beta[97] - 8.57932e-09 beta[98]
   - 9.50458e-09 beta[99] - 7.56278e-09 beta[100] - 5.20847e-09 beta[101]
   - 3.52305e-09 beta[102] - 2.37266e-09 beta[103] + 1.99392e-08 beta[104]
   - 2.57719e-09 beta[105] - 2.55521e-09 beta[106] - 4.75674e-09 beta[107]
   - 5.16469e-09 beta[108] - 4.74241e-09 beta[109] - 4.24553e-09 beta[110]
   - 3.80481e-09 beta[111] + 9.88728e-09 beta[112] + 1.21376e-08 beta[113]
   + 1.02842e-08 beta[114] + 7.94347e-09 beta[115] + 5.36555e-09 beta[116]
   + 3.40341e-09 beta[117] + 2.04446e-09 beta[118] + 1.05514e-09 beta[119]
   + 4.27324e-08 beta[120] + 1.5636e-08 beta[121] + 1.03299e-08 beta[122]
   + 1.11929e-08 beta[123] + 1.05333e-08 beta[124] + 9.35317e-09 beta[125]
   + 8.263e-09 beta[126] + 7.26383e-09 beta[127] + 8.30272e-08 beta[128]
   + 1.10865e-08 beta[129] - 9.28419e-10 beta[130] - 1.53621e-09 beta[131]
   - 7.62688e-10 beta[132] + 9.2616e-11 beta[133] + 1.0402e-09 beta[134]
   + 1.99453e-09 beta[135] - 1.46106e-07 beta[136] - 5.03811e-08 beta[137]
   - 3.20349e-08 beta[138] - 2.75887e-08 beta[139] - 2.38693e-08 beta[140]
   - 2.09314e-08 beta[141] - 1.84448e-08 beta[142] - 1.60639e-08 beta[143]
   - 4.06301e-07 beta[144] - 1.05603e-07 beta[145] - 4.42509e-08 beta[146]
   - 2.28964e-08 beta[147] - 1.27541e-08 beta[148] - 8.35955e-09 beta[149]
   - 7.19131e-09 beta[150] - 7.46817e-09 beta[151] + 2.53042e-07 beta[152]
   + 1.46864e-07 beta[153] + 8.61243e-08 beta[154] + 6.63015e-08 beta[155]
   + 5.53293e-08 beta[156] + 4.8284e-08 beta[157] + 4.24649e-08 beta[158]
   + 3.68683e-08 beta[159] + 9.68728e-07 beta[160] + 3.0101e-07 beta[161]
   + 1.34335e-07 beta[162] + 6.12884e-08 beta[163] + 2.60234e-08 beta[164]
   + 1.11405e-08 beta[165] + 6.66168e-09 beta[166] + 6.64535e-09 beta[167]
   - 3.91094e-07 beta[168] - 3.61494e-07 beta[169] - 1.80004e-07 beta[170]
   - 1.24532e-07 beta[171] - 1.00603e-07 beta[172] - 8.72695e-08 beta[173]
   - 7.66215e-08 beta[174] - 6.64055e-08 beta[175] - 1.79786e-06 beta[176]
   - 6.39721e-07 beta[177] - 2.80689e-07 beta[178] - 1.08653e-07 beta[179]
   - 2.95619e-08 beta[180] + 1.03593e-09 beta[181] + 8.61012e-09 beta[182]
   + 6.83426e-09 beta[183] + 6.40616e-07 beta[184] + 7.28717e-07 beta[185]
   + 2.96968e-07 beta[186] + 1.79144e-07 beta[187] + 1.39319e-07 beta[188]
   + 1.21643e-07 beta[189] + 1.0863e-07 beta[190] + 9.58308e-08 beta[191]
   + 4.87039e-09 beta[192] - 4.13198e-09 beta[193] - 6.31453e-09 beta[194]
   + 3.62781e-09 beta[195] + 1.55692e-08 beta[196] + 1.70165e-08 beta[197]
   - 9.59975e-10 beta[198] - 2.79233e-08 beta[199] - 8.90362e-09 beta[200]
   + 3.39889e-09 beta[201] + 8.46379e-09 beta[202] - 2.96586e-09 beta[203]
   - 1.74554e-08 beta[204] - 1.60244e-08 beta[205] + 5.13748e-09 beta[206]
   + 2.5927e-08 beta[207] - 2.6321e-08 beta[208] - 2.31529e-09 beta[209]
   + 9.06357e-09 beta[210] + 2.19142e-09 beta[211] + 4.57644e-09 beta[212]
   + 1.36197e-08 beta[213] + 1.00317e-09 beta[214] - 2.20096e-08 beta[215]
   + 1.26248e-08 beta[216] + 2.11792e-09 beta[217] - 2.602e-09 beta[218]
   - 3.2763e-09 beta[219] - 9.03408e-09 beta[220] - 7.35867e-09 beta[221]
   + 8.22721e-09 beta[222] + 1.34531e-08 beta[223] + 9.18807e-08 beta[224]
   - 3.73891e-09 beta[225] - 4.7429e-08 beta[226] + 7.81154e-09 beta[227]
   + 4.31263e-08 beta[228] - 5.09773e-09 beta[229] - 3.97277e-08 beta[230]
   + 3.41133e-09 beta[231] - 1.13788e-07 beta[232] + 6.51817e-09 beta[233]
   + 5.33598e-08 beta[234] - 1.43988e-08 beta[235] - 3.89781e-08 beta[236]
   + 2.14428e-08 beta[237] + 3.3314e-08 beta[238] - 2.63011e-08 beta[239]
   - 1.90172e-07 beta[240] - 2.31619e-09 beta[241] + 1.04033e-07 beta[242]
   + 9.23592e-09 beta[243] - 8.95281e-08 beta[244] - 2.15621e-08 beta[245]
   + 8.02358e-08 beta[246] + 2.93677e-08 beta[247] + 5.59447e-07 beta[248]
   - 2.02031e-08 beta[249] - 2.8924e-07 beta[250] + 2.64146e-08 beta[251]
   + 2.32384e-07 beta[252] - 2.12826e-08 beta[253] - 2.00091e-07 beta[254]
   + 2.13092e-08 beta[255] + 2.80418e-07 beta[256] + 3.81322e-08 beta[257]
   - 1.37582e-07 beta[258] - 5.77761e-08 beta[259] + 9.50101e-08 beta[260]
   + 6.28291e-08 beta[261] - 8.30475e-08 beta[262] - 7.03019e-08 beta[263]
   - 1.74968e-06 beta[264] - 2.20017e-09 beta[265] + 8.81684e-07 beta[266]
   + 8.23201e-09 beta[267] - 6.63914e-07 beta[268] - 2.3387e-09 beta[269]
   + 5.67967e-07 beta[270] - 1.00006e-08 beta[271] - 2.98234e-07 beta[272]
   - 6.5603e-08 beta[273] + 1.39792e-07 beta[274] + 9.04947e-08 beta[275]
   - 1.03946e-07 beta[276] - 1.21184e-07 beta[277] + 8.444e-08 beta[278]
   + 1.75524e-07 beta[279] + 4.22982e-06 beta[280] + 3.86404e-08 beta[281]
   - 2.11079e-06 beta[282] - 4.5559e-08 beta[283] + 1.59703e-06 beta[284]
   + 5.65611e-08 beta[285] - 1.36892e-06 beta[286] - 1.12617e-07 beta[287]
   <= 2.3904e-05
 R627: - 8.18162e-08 beta[0] + 3.49411e-08 beta[1] - 2.84339e-08 beta[2]
   - 1.0965e-08 beta[3] + 4.86238e-10 beta[4] + 2.42987e-09 beta[5]
   + 2.19888e-09 beta[6] + 1.78084e-09 beta[7] + 1.5039e-07 beta[8]
   + 4.49016e-08 beta[9] - 3.36819e-08 beta[10] - 2.62748e-08 beta[11]
   - 1.17454e-08 beta[12] - 5.02665e-09 beta[13] - 2.43682e-09 beta[14]
   - 1.36289e-09 beta[15] - 7.03689e-07 beta[16] + 1.74722e-07 beta[17]
   + 1.0782e-07 beta[18] + 3.75706e-08 beta[19] + 1.02919e-08 beta[20]
   + 2.18964e-09 beta[21] + 5.68296e-11 beta[22] - 3.98246e-10 beta[23]
   - 8.25409e-07 beta[24] - 1.53769e-07 beta[25] + 7.04072e-09 beta[26]
   + 1.77639e-08 beta[27] + 9.46137e-09 beta[28] + 4.64452e-09 beta[29]
   + 2.31735e-09 beta[30] + 1.09977e-09 beta[31] + 1.24227e-06 beta[32]
   - 7.15288e-07 beta[33] - 2.65933e-07 beta[34] - 7.84525e-08 beta[35]
   - 2.14621e-08 beta[36] - 4.90668e-09 beta[37] - 2.55794e-10 beta[38]
   + 8.52144e-10 beta[39] + 4.58161e-06 beta[40] + 1.09875e-06 beta[41]
   + 2.47225e-07 beta[42] + 5.6354e-08 beta[43] + 1.17031e-08 beta[44]
   + 1.4233e-09 beta[45] - 8.43603e-11 beta[46] + 3.2212e-10 beta[47]
   - 5.1977e-06 beta[48] + 4.5564e-07 beta[49] + 1.78375e-07 beta[50]
   + 4.23144e-08 beta[51] + 5.43734e-09 beta[52] - 4.79644e-09 beta[53]
   - 7.05096e-09 beta[54] - 6.67659e-09 beta[55] - 8.78059e-06 beta[56]
   - 2.1968e-06 beta[57] - 5.35143e-07 beta[58] - 1.29777e-07 beta[59]
   - 2.42796e-08 beta[60] + 1.43721e-09 beta[61] + 5.27044e-09 beta[62]
   + 4.02593e-09 beta[63] + 1.48724e-05 beta[64] + 1.25296e-06 beta[65]
   + 2.64596e-07 beta[66] + 8.5008e-08 beta[67] + 3.56522e-08 beta[68]
   + 2.25041e-08 beta[69] + 1.75632e-08 beta[70] + 1.40821e-08 beta[71]
   + 5.32139e-06 beta[72] + 1.98025e-06 beta[73] + 5.68472e-07 beta[74]
   + 1.22087e-07 beta[75] - 2.49697e-09 beta[76] - 2.83499e-08 beta[77]
   - 2.63011e-08 beta[78] - 1.89971e-08 beta[79] - 2.26385e-05 beta[80]
   - 3.4407e-06 beta[81] - 8.02876e-07 beta[82] - 2.04477e-07 beta[83]
   - 5.27409e-08 beta[84] - 1.96084e-08 beta[85] - 1.34132e-08 beta[86]
   - 1.16225e-08 beta[87] + 3.34132e-06 beta[88] - 9.42268e-07 beta[89]
   - 5.67863e-07 beta[90] - 1.15182e-07 beta[91] + 3.15022e-08 beta[92]
   + 5.85215e-08 beta[93] + 4.98206e-08 beta[94] + 3.53294e-08 beta[95]
   + 2.6806e-08 beta[96] - 9.63721e-09 beta[97] - 8.57932e-09 beta[98]
   - 9.50458e-09 beta[99] - 7.56278e-09 beta[100] - 5.20847e-09 beta[101]
   - 3.52305e-09 beta[102] - 2.37266e-09 beta[103] + 1.99392e-08 beta[104]
   - 2.57719e-09 beta[105] - 2.55521e-09 beta[106] - 4.75674e-09 beta[107]
   - 5.16469e-09 beta[108] - 4.74241e-09 beta[109] - 4.24553e-09 beta[110]
   - 3.80481e-09 beta[111] + 9.88728e-09 beta[112] + 1.21376e-08 beta[113]
   + 1.02842e-08 beta[114] + 7.94347e-09 beta[115] + 5.36555e-09 beta[116]
   + 3.40341e-09 beta[117] + 2.04446e-09 beta[118] + 1.05514e-09 beta[119]
   + 4.27324e-08 beta[120] + 1.5636e-08 beta[121] + 1.03299e-08 beta[122]
   + 1.11929e-08 beta[123] + 1.05333e-08 beta[124] + 9.35317e-09 beta[125]
   + 8.263e-09 beta[126] + 7.26383e-09 beta[127] + 8.30272e-08 beta[128]
   + 1.10865e-08 beta[129] - 9.28419e-10 beta[130] - 1.53621e-09 beta[131]
   - 7.62688e-10 beta[132] + 9.2616e-11 beta[133] + 1.0402e-09 beta[134]
   + 1.99453e-09 beta[135] - 1.46106e-07 beta[136] - 5.03811e-08 beta[137]
   - 3.20349e-08 beta[138] - 2.75887e-08 beta[139] - 2.38693e-08 beta[140]
   - 2.09314e-08 beta[141] - 1.84448e-08 beta[142] - 1.60639e-08 beta[143]
   - 4.06301e-07 beta[144] - 1.05603e-07 beta[145] - 4.42509e-08 beta[146]
   - 2.28964e-08 beta[147] - 1.27541e-08 beta[148] - 8.35955e-09 beta[149]
   - 7.19131e-09 beta[150] - 7.46817e-09 beta[151] + 2.53042e-07 beta[152]
   + 1.46864e-07 beta[153] + 8.61243e-08 beta[154] + 6.63015e-08 beta[155]
   + 5.53293e-08 beta[156] + 4.8284e-08 beta[157] + 4.24649e-08 beta[158]
   + 3.68683e-08 beta[159] + 9.68728e-07 beta[160] + 3.0101e-07 beta[161]
   + 1.34335e-07 beta[162] + 6.12884e-08 beta[163] + 2.60234e-08 beta[164]
   + 1.11405e-08 beta[165] + 6.66168e-09 beta[166] + 6.64535e-09 beta[167]
   - 3.91094e-07 beta[168] - 3.61494e-07 beta[169] - 1.80004e-07 beta[170]
   - 1.24532e-07 beta[171] - 1.00603e-07 beta[172] - 8.72695e-08 beta[173]
   - 7.66215e-08 beta[174] - 6.64055e-08 beta[175] - 1.79786e-06 beta[176]
   - 6.39721e-07 beta[177] - 2.80689e-07 beta[178] - 1.08653e-07 beta[179]
   - 2.95619e-08 beta[180] + 1.03593e-09 beta[181] + 8.61012e-09 beta[182]
   + 6.83426e-09 beta[183] + 6.40616e-07 beta[184] + 7.28717e-07 beta[185]
   + 2.96968e-07 beta[186] + 1.79144e-07 beta[187] + 1.39319e-07 beta[188]
   + 1.21643e-07 beta[189] + 1.0863e-07 beta[190] + 9.58308e-08 beta[191]
   + 4.87039e-09 beta[192] - 4.13198e-09 beta[193] - 6.31453e-09 beta[194]
   + 3.62781e-09 beta[195] + 1.55692e-08 beta[196] + 1.70165e-08 beta[197]
   - 9.59975e-10 beta[198] - 2.79233e-08 beta[199] - 8.90362e-09 beta[200]
   + 3.39889e-09 beta[201] + 8.46379e-09 beta[202] - 2.96586e-09 beta[203]
   - 1.74554e-08 beta[204] - 1.60244e-08 beta[205] + 5.13748e-09 beta[206]
   + 2.5927e-08 beta[207] - 2.6321e-08 beta[208] - 2.31529e-09 beta[209]
   + 9.06357e-09 beta[210] + 2.19142e-09 beta[211] + 4.57644e-09 beta[212]
   + 1.36197e-08 beta[213] + 1.00317e-09 beta[214] - 2.20096e-08 beta[215]
   + 1.26248e-08 beta[216] + 2.11792e-09 beta[217] - 2.602e-09 beta[218]
   - 3.2763e-09 beta[219] - 9.03408e-09 beta[220] - 7.35867e-09 beta[221]
   + 8.22721e-09 beta[222] + 1.34531e-08 beta[223] + 9.18807e-08 beta[224]
   - 3.73891e-09 beta[225] - 4.7429e-08 beta[226] + 7.81154e-09 beta[227]
   + 4.31263e-08 beta[228] - 5.09773e-09 beta[229] - 3.97277e-08 beta[230]
   + 3.41133e-09 beta[231] - 1.13788e-07 beta[232] + 6.51817e-09 beta[233]
   + 5.33598e-08 beta[234] - 1.43988e-08 beta[235] - 3.89781e-08 beta[236]
   + 2.14428e-08 beta[237] + 3.3314e-08 beta[238] - 2.63011e-08 beta[239]
   - 1.90172e-07 beta[240] - 2.31619e-09 beta[241] + 1.04033e-07 beta[242]
   + 9.23592e-09 beta[243] - 8.95281e-08 beta[244] - 2.15621e-08 beta[245]
   + 8.02358e-08 beta[246] + 2.93677e-08 beta[247] + 5.59447e-07 beta[248]
   - 2.02031e-08 beta[249] - 2.8924e-07 beta[250] + 2.64146e-08 beta[251]
   + 2.32384e-07 beta[252] - 2.12826e-08 beta[253] - 2.00091e-07 beta[254]
   + 2.13092e-08 beta[255] + 2.80418e-07 beta[256] + 3.81322e-08 beta[257]
   - 1.37582e-07 beta[258] - 5.77761e-08 beta[259] + 9.50101e-08 beta[260]
   + 6.28291e-08 beta[261] - 8.30475e-08 beta[262] - 7.03019e-08 beta[263]
   - 1.74968e-06 beta[264] - 2.20017e-09 beta[265] + 8.81684e-07 beta[266]
   + 8.23201e-09 beta[267] - 6.63914e-07 beta[268] - 2.3387e-09 beta[269]
   + 5.67967e-07 beta[270] - 1.00006e-08 beta[271] - 2.98234e-07 beta[272]
   - 6.5603e-08 beta[273] + 1.39792e-07 beta[274] + 9.04947e-08 beta[275]
   - 1.03946e-07 beta[276] - 1.21184e-07 beta[277] + 8.444e-08 beta[278]
   + 1.75524e-07 beta[279] + 4.22982e-06 beta[280] + 3.86404e-08 beta[281]
   - 2.11079e-06 beta[282] - 4.5559e-08 beta[283] + 1.59703e-06 beta[284]
   + 5.65611e-08 beta[285] - 1.36892e-06 beta[286] - 1.12617e-07 beta[287]
   >= -2.3904e-05
 R628: 6.60418e-08 beta[0] - 6.78898e-08 beta[1] + 4.06872e-08 beta[2]
   + 1.7717e-09 beta[3] - 5.87185e-09 beta[4] - 2.62685e-09 beta[5]
   - 6.69929e-10 beta[6] - 1.06447e-10 beta[7] - 9.98592e-07 beta[8]
   - 2.19555e-07 beta[9] - 2.02265e-08 beta[10] - 4.45565e-09 beta[11]
   - 2.44859e-09 beta[12] - 5.32063e-10 beta[13] + 1.08434e-10 beta[14]
   + 2.06029e-10 beta[15] + 3.01955e-06 beta[16] + 8.66491e-08 beta[17]
   + 1.0096e-07 beta[18] + 4.2496e-08 beta[19] + 1.45074e-08 beta[20]
   + 4.50002e-09 beta[21] + 1.25388e-09 beta[22] + 2.80503e-10 beta[23]
   + 5.0772e-06 beta[24] - 1.71789e-07 beta[25] - 1.11926e-07 beta[26]
   - 4.05387e-08 beta[27] - 1.43693e-08 beta[28] - 5.11218e-09 beta[29]
   - 1.76285e-09 beta[30] - 5.55892e-10 beta[31] - 1.27958e-05 beta[32]
   - 4.41909e-07 beta[33] - 1.77441e-07 beta[34] - 5.30626e-08 beta[35]
   - 1.6248e-08 beta[36] - 5.32603e-09 beta[37] - 1.8053e-09 beta[38]
   - 6.87819e-10 beta[39] - 7.96596e-06 beta[40] + 1.3248e-06 beta[41]
   + 5.02382e-07 beta[42] + 1.73427e-07 beta[43] + 5.66501e-08 beta[44]
   + 1.69512e-08 beta[45] + 4.53749e-09 beta[46] + 9.73307e-10 beta[47]
   + 2.99513e-05 beta[48] - 6.31491e-07 beta[49] - 2.76759e-07 beta[50]
   - 6.02442e-08 beta[51] - 5.97489e-09 beta[52] + 2.92586e-09 beta[53]
   + 2.97549e-09 beta[54] + 2.19786e-09 beta[55] + 1.08456e-05 beta[56]
   - 2.06861e-06 beta[57] - 1.05217e-06 beta[58] - 3.72429e-07 beta[59]
   - 1.1542e-07 beta[60] - 3.28216e-08 beta[61] - 8.93383e-09 beta[62]
   - 2.70964e-09 beta[63] - 5.16864e-05 beta[64] + 4.19428e-06 beta[65]
   + 1.29208e-06 beta[66] + 2.63799e-07 beta[67] + 3.95068e-08 beta[68]
   - 1.28554e-09 beta[69] - 5.73042e-09 beta[70] - 4.61203e-09 beta[71]
   - 1.96135e-06 beta[72] + 3.21563e-06 beta[73] + 1.72358e-06 beta[74]
   + 5.80146e-07 beta[75] + 1.7486e-07 beta[76] + 5.19289e-08 beta[77]
   + 1.73537e-08 beta[78] + 8.23921e-09 beta[79] + 6.92342e-05 beta[80]
   - 7.2097e-06 beta[81] - 1.94813e-06 beta[82] - 3.63001e-07 beta[83]
   - 4.82569e-08 beta[84] + 3.11495e-09 beta[85] + 5.88856e-09 beta[86]
   + 2.8505e-09 beta[87] - 5.76152e-05 beta[88] - 7.57373e-06 beta[89]
   - 2.42194e-06 beta[90] - 7.2879e-07 beta[91] - 2.19094e-07 beta[92]
   - 6.90168e-08 beta[93] - 2.5728e-08 beta[94] - 1.39558e-08 beta[95]
   - 2.89883e-07 beta[96] - 2.37755e-08 beta[97] + 1.5002e-08 beta[98]
   + 2.98336e-08 beta[99] + 3.59623e-09 beta[100] - 3.00008e-09 beta[101]
   - 1.17916e-09 beta[102] + 9.49254e-10 beta[103] - 1.20532e-07 beta[104]
   - 5.64148e-08 beta[105] - 1.48917e-09 beta[106] + 2.43347e-08 beta[107]
   + 4.09873e-09 beta[108] - 3.40074e-09 beta[109] - 3.16307e-09 beta[110]
   - 1.55059e-09 beta[111] + 2.35563e-07 beta[112] - 9.0663e-08 beta[113]
   - 3.15688e-08 beta[114] + 1.41585e-08 beta[115] + 7.46527e-09 beta[116]
   - 1.32884e-10 beta[117] - 2.7593e-09 beta[118] - 2.83449e-09 beta[119]
   + 8.29547e-08 beta[120] - 7.89896e-08 beta[121] - 6.27228e-08 beta[122]
   - 1.44634e-09 beta[123] + 1.26661e-08 beta[124] + 8.85347e-09 beta[125]
   + 3.63626e-09 beta[126] + 5.88243e-10 beta[127] - 5.4526e-07 beta[128]
   + 4.94251e-09 beta[129] - 7.38478e-08 beta[130] - 2.85385e-08 beta[131]
   + 5.63526e-09 beta[132] + 1.25907e-08 beta[133] + 9.71839e-09 beta[134]
   + 5.74499e-09 beta[135] + 3.7849e-07 beta[136] + 1.54866e-07 beta[137]
   - 6.31333e-08 beta[138] - 7.57403e-08 beta[139] - 3.27235e-08 beta[140]
   - 7.43948e-09 beta[141] + 2.05594e-09 beta[142] + 4.40464e-09 beta[143]
   + 2.2102e-06 beta[144] + 3.8851e-07 beta[145] + 3.78202e-08 beta[146]
   - 7.96577e-08 beta[147] - 6.82899e-08 beta[148] - 3.94863e-08 beta[149]
   - 1.9273e-08 beta[150] - 8.1722e-09 beta[151] + 2.76024e-07 beta[152]
   + 6.25699e-07 beta[153] + 3.63928e-07 beta[154] + 1.00605e-07 beta[155]
   + 2.40217e-09 beta[156] - 2.07456e-08 beta[157] - 2.06e-08 beta[158]
   - 1.57071e-08 beta[159] - 3.86512e-06 beta[160] + 2.69305e-07 beta[161]
   + 5.751e-07 beta[162] + 3.40989e-07 beta[163] + 1.60577e-07 beta[164]
   + 6.83324e-08 beta[165] + 2.66161e-08 beta[166] + 8.96848e-09 beta[167]
   - 3.26013e-06 beta[168] - 1.29525e-06 beta[169] - 1.24154e-07 beta[170]
   + 1.37067e-07 beta[171] + 1.30545e-07 beta[172] + 8.77033e-08 beta[173]
   + 5.43793e-08 beta[174] + 3.34263e-08 beta[175] - 7.88707e-07 beta[176]
   - 2.85264e-06 beta[177] - 1.35693e-06 beta[178] - 5.19908e-07 beta[179]
   - 1.93129e-07 beta[180] - 7.01989e-08 beta[181] - 2.38866e-08 beta[182]
   - 6.94374e-09 beta[183] + 1.16958e-07 beta[184] - 1.51282e-06 beta[185]
   - 1.23053e-06 beta[186] - 6.67165e-07 beta[187] - 3.4162e-07 beta[188]
   - 1.78703e-07 beta[189] - 9.73026e-08 beta[190] - 5.52192e-08 beta[191]
   + 4.67024e-08 beta[192] - 1.66278e-08 beta[193] + 4.41599e-09 beta[194]
   + 3.98821e-08 beta[195] - 4.7873e-08 beta[196] - 7.24512e-08 beta[197]
   + 1.11639e-07 beta[198] + 1.26054e-07 beta[199] + 2.89832e-08 beta[200]
   + 1.83801e-08 beta[201] - 3.87794e-08 beta[202] - 4.05421e-08 beta[203]
   + 6.71415e-08 beta[204] + 6.90303e-08 beta[205] - 1.16449e-07 beta[206]
   - 1.12233e-07 beta[207] + 2.13628e-07 beta[208] - 2.00549e-08 beta[209]
   - 9.02952e-08 beta[210] + 3.9446e-08 beta[211] + 4.40443e-08 beta[212]
   - 5.99209e-08 beta[213] - 2.35352e-10 beta[214] + 8.35258e-08 beta[215]
   - 1.74005e-07 beta[216] + 9.36401e-09 beta[217] + 8.01497e-08 beta[218]
   - 1.90434e-08 beta[219] - 5.43129e-08 beta[220] + 2.54022e-08 beta[221]
   + 3.93154e-08 beta[222] - 2.17284e-08 beta[223] - 6.68247e-07 beta[224]
   + 6.03782e-09 beta[225] + 3.31814e-07 beta[226] - 7.84366e-09 beta[227]
   - 2.38037e-07 beta[228] + 1.47678e-08 beta[229] + 1.74714e-07 beta[230]
   - 4.13318e-08 beta[231] + 7.26507e-07 beta[232] - 1.25844e-08 beta[233]
   - 3.53352e-07 beta[234] + 1.98639e-08 beta[235] + 2.41947e-07 beta[236]
   - 3.05013e-08 beta[237] - 1.56246e-07 beta[238] + 6.07745e-08 beta[239]
   + 1.08475e-06 beta[240] + 3.00357e-08 beta[241] - 5.54552e-07 beta[242]
   - 4.74536e-08 beta[243] + 4.38493e-07 beta[244] + 6.08904e-08 beta[245]
   - 4.08743e-07 beta[246] - 8.0019e-08 beta[247] - 1.85594e-06 beta[248]
   - 3.44669e-08 beta[249] + 9.3713e-07 beta[250] + 5.76578e-08 beta[251]
   - 7.11533e-07 beta[252] - 7.25384e-08 beta[253] + 6.05502e-07 beta[254]
   + 7.31702e-08 beta[255] - 1.02747e-06 beta[256] - 3.7436e-08 beta[257]
   + 5.03781e-07 beta[258] + 4.30429e-08 beta[259] - 3.77535e-07 beta[260]
   - 4.39936e-08 beta[261] + 3.33988e-07 beta[262] + 6.76753e-08 beta[263]
   + 3.24679e-06 beta[264] + 9.75482e-08 beta[265] - 1.60744e-06 beta[266]
   - 1.27572e-07 beta[267] + 1.19868e-06 beta[268] + 1.35341e-07 beta[269]
   - 1.02669e-06 beta[270] - 1.59482e-07 beta[271] + 3.6562e-07 beta[272]
   - 1.36111e-08 beta[273] - 1.92445e-07 beta[274] + 7.05579e-09 beta[275]
   + 1.49228e-07 beta[276] + 1.73256e-08 beta[277] - 9.63357e-08 beta[278]
   - 3.64234e-08 beta[279] - 3.79429e-06 beta[280] - 1.2794e-07 beta[281]
   + 1.88229e-06 beta[282] + 1.84771e-07 beta[283] - 1.39701e-06 beta[284]
   - 2.35564e-07 beta[285] + 1.14025e-06 beta[286] + 2.94919e-07 beta[287]
   <= 2.3904e-05
 R629: 6.60418e-08 beta[0] - 6.78898e-08 beta[1] + 4.06872e-08 beta[2]
   + 1.7717e-09 beta[3] - 5.87185e-09 beta[4] - 2.62685e-09 beta[5]
   - 6.69929e-10 beta[6] - 1.06447e-10 beta[7] - 9.98592e-07 beta[8]
   - 2.19555e-07 beta[9] - 2.02265e-08 beta[10] - 4.45565e-09 beta[11]
   - 2.44859e-09 beta[12] - 5.32063e-10 beta[13] + 1.08434e-10 beta[14]
   + 2.06029e-10 beta[15] + 3.01955e-06 beta[16] + 8.66491e-08 beta[17]
   + 1.0096e-07 beta[18] + 4.2496e-08 beta[19] + 1.45074e-08 beta[20]
   + 4.50002e-09 beta[21] + 1.25388e-09 beta[22] + 2.80503e-10 beta[23]
   + 5.0772e-06 beta[24] - 1.71789e-07 beta[25] - 1.11926e-07 beta[26]
   - 4.05387e-08 beta[27] - 1.43693e-08 beta[28] - 5.11218e-09 beta[29]
   - 1.76285e-09 beta[30] - 5.55892e-10 beta[31] - 1.27958e-05 beta[32]
   - 4.41909e-07 beta[33] - 1.77441e-07 beta[34] - 5.30626e-08 beta[35]
   - 1.6248e-08 beta[36] - 5.32603e-09 beta[37] - 1.8053e-09 beta[38]
   - 6.87819e-10 beta[39] - 7.96596e-06 beta[40] + 1.3248e-06 beta[41]
   + 5.02382e-07 beta[42] + 1.73427e-07 beta[43] + 5.66501e-08 beta[44]
   + 1.69512e-08 beta[45] + 4.53749e-09 beta[46] + 9.73307e-10 beta[47]
   + 2.99513e-05 beta[48] - 6.31491e-07 beta[49] - 2.76759e-07 beta[50]
   - 6.02442e-08 beta[51] - 5.97489e-09 beta[52] + 2.92586e-09 beta[53]
   + 2.97549e-09 beta[54] + 2.19786e-09 beta[55] + 1.08456e-05 beta[56]
   - 2.06861e-06 beta[57] - 1.05217e-06 beta[58] - 3.72429e-07 beta[59]
   - 1.1542e-07 beta[60] - 3.28216e-08 beta[61] - 8.93383e-09 beta[62]
   - 2.70964e-09 beta[63] - 5.16864e-05 beta[64] + 4.19428e-06 beta[65]
   + 1.29208e-06 beta[66] + 2.63799e-07 beta[67] + 3.95068e-08 beta[68]
   - 1.28554e-09 beta[69] - 5.73042e-09 beta[70] - 4.61203e-09 beta[71]
   - 1.96135e-06 beta[72] + 3.21563e-06 beta[73] + 1.72358e-06 beta[74]
   + 5.80146e-07 beta[75] + 1.7486e-07 beta[76] + 5.19289e-08 beta[77]
   + 1.73537e-08 beta[78] + 8.23921e-09 beta[79] + 6.92342e-05 beta[80]
   - 7.2097e-06 beta[81] - 1.94813e-06 beta[82] - 3.63001e-07 beta[83]
   - 4.82569e-08 beta[84] + 3.11495e-09 beta[85] + 5.88856e-09 beta[86]
   + 2.8505e-09 beta[87] - 5.76152e-05 beta[88] - 7.57373e-06 beta[89]
   - 2.42194e-06 beta[90] - 7.2879e-07 beta[91] - 2.19094e-07 beta[92]
   - 6.90168e-08 beta[93] - 2.5728e-08 beta[94] - 1.39558e-08 beta[95]
   - 2.89883e-07 beta[96] - 2.37755e-08 beta[97] + 1.5002e-08 beta[98]
   + 2.98336e-08 beta[99] + 3.59623e-09 beta[100] - 3.00008e-09 beta[101]
   - 1.17916e-09 beta[102] + 9.49254e-10 beta[103] - 1.20532e-07 beta[104]
   - 5.64148e-08 beta[105] - 1.48917e-09 beta[106] + 2.43347e-08 beta[107]
   + 4.09873e-09 beta[108] - 3.40074e-09 beta[109] - 3.16307e-09 beta[110]
   - 1.55059e-09 beta[111] + 2.35563e-07 beta[112] - 9.0663e-08 beta[113]
   - 3.15688e-08 beta[114] + 1.41585e-08 beta[115] + 7.46527e-09 beta[116]
   - 1.32884e-10 beta[117] - 2.7593e-09 beta[118] - 2.83449e-09 beta[119]
   + 8.29547e-08 beta[120] - 7.89896e-08 beta[121] - 6.27228e-08 beta[122]
   - 1.44634e-09 beta[123] + 1.26661e-08 beta[124] + 8.85347e-09 beta[125]
   + 3.63626e-09 beta[126] + 5.88243e-10 beta[127] - 5.4526e-07 beta[128]
   + 4.94251e-09 beta[129] - 7.38478e-08 beta[130] - 2.85385e-08 beta[131]
   + 5.63526e-09 beta[132] + 1.25907e-08 beta[133] + 9.71839e-09 beta[134]
   + 5.74499e-09 beta[135] + 3.7849e-07 beta[136] + 1.54866e-07 beta[137]
   - 6.31333e-08 beta[138] - 7.57403e-08 beta[139] - 3.27235e-08 beta[140]
   - 7.43948e-09 beta[141] + 2.05594e-09 beta[142] + 4.40464e-09 beta[143]
   + 2.2102e-06 beta[144] + 3.8851e-07 beta[145] + 3.78202e-08 beta[146]
   - 7.96577e-08 beta[147] - 6.82899e-08 beta[148] - 3.94863e-08 beta[149]
   - 1.9273e-08 beta[150] - 8.1722e-09 beta[151] + 2.76024e-07 beta[152]
   + 6.25699e-07 beta[153] + 3.63928e-07 beta[154] + 1.00605e-07 beta[155]
   + 2.40217e-09 beta[156] - 2.07456e-08 beta[157] - 2.06e-08 beta[158]
   - 1.57071e-08 beta[159] - 3.86512e-06 beta[160] + 2.69305e-07 beta[161]
   + 5.751e-07 beta[162] + 3.40989e-07 beta[163] + 1.60577e-07 beta[164]
   + 6.83324e-08 beta[165] + 2.66161e-08 beta[166] + 8.96848e-09 beta[167]
   - 3.26013e-06 beta[168] - 1.29525e-06 beta[169] - 1.24154e-07 beta[170]
   + 1.37067e-07 beta[171] + 1.30545e-07 beta[172] + 8.77033e-08 beta[173]
   + 5.43793e-08 beta[174] + 3.34263e-08 beta[175] - 7.88707e-07 beta[176]
   - 2.85264e-06 beta[177] - 1.35693e-06 beta[178] - 5.19908e-07 beta[179]
   - 1.93129e-07 beta[180] - 7.01989e-08 beta[181] - 2.38866e-08 beta[182]
   - 6.94374e-09 beta[183] + 1.16958e-07 beta[184] - 1.51282e-06 beta[185]
   - 1.23053e-06 beta[186] - 6.67165e-07 beta[187] - 3.4162e-07 beta[188]
   - 1.78703e-07 beta[189] - 9.73026e-08 beta[190] - 5.52192e-08 beta[191]
   + 4.67024e-08 beta[192] - 1.66278e-08 beta[193] + 4.41599e-09 beta[194]
   + 3.98821e-08 beta[195] - 4.7873e-08 beta[196] - 7.24512e-08 beta[197]
   + 1.11639e-07 beta[198] + 1.26054e-07 beta[199] + 2.89832e-08 beta[200]
   + 1.83801e-08 beta[201] - 3.87794e-08 beta[202] - 4.05421e-08 beta[203]
   + 6.71415e-08 beta[204] + 6.90303e-08 beta[205] - 1.16449e-07 beta[206]
   - 1.12233e-07 beta[207] + 2.13628e-07 beta[208] - 2.00549e-08 beta[209]
   - 9.02952e-08 beta[210] + 3.9446e-08 beta[211] + 4.40443e-08 beta[212]
   - 5.99209e-08 beta[213] - 2.35352e-10 beta[214] + 8.35258e-08 beta[215]
   - 1.74005e-07 beta[216] + 9.36401e-09 beta[217] + 8.01497e-08 beta[218]
   - 1.90434e-08 beta[219] - 5.43129e-08 beta[220] + 2.54022e-08 beta[221]
   + 3.93154e-08 beta[222] - 2.17284e-08 beta[223] - 6.68247e-07 beta[224]
   + 6.03782e-09 beta[225] + 3.31814e-07 beta[226] - 7.84366e-09 beta[227]
   - 2.38037e-07 beta[228] + 1.47678e-08 beta[229] + 1.74714e-07 beta[230]
   - 4.13318e-08 beta[231] + 7.26507e-07 beta[232] - 1.25844e-08 beta[233]
   - 3.53352e-07 beta[234] + 1.98639e-08 beta[235] + 2.41947e-07 beta[236]
   - 3.05013e-08 beta[237] - 1.56246e-07 beta[238] + 6.07745e-08 beta[239]
   + 1.08475e-06 beta[240] + 3.00357e-08 beta[241] - 5.54552e-07 beta[242]
   - 4.74536e-08 beta[243] + 4.38493e-07 beta[244] + 6.08904e-08 beta[245]
   - 4.08743e-07 beta[246] - 8.0019e-08 beta[247] - 1.85594e-06 beta[248]
   - 3.44669e-08 beta[249] + 9.3713e-07 beta[250] + 5.76578e-08 beta[251]
   - 7.11533e-07 beta[252] - 7.25384e-08 beta[253] + 6.05502e-07 beta[254]
   + 7.31702e-08 beta[255] - 1.02747e-06 beta[256] - 3.7436e-08 beta[257]
   + 5.03781e-07 beta[258] + 4.30429e-08 beta[259] - 3.77535e-07 beta[260]
   - 4.39936e-08 beta[261] + 3.33988e-07 beta[262] + 6.76753e-08 beta[263]
   + 3.24679e-06 beta[264] + 9.75482e-08 beta[265] - 1.60744e-06 beta[266]
   - 1.27572e-07 beta[267] + 1.19868e-06 beta[268] + 1.35341e-07 beta[269]
   - 1.02669e-06 beta[270] - 1.59482e-07 beta[271] + 3.6562e-07 beta[272]
   - 1.36111e-08 beta[273] - 1.92445e-07 beta[274] + 7.05579e-09 beta[275]
   + 1.49228e-07 beta[276] + 1.73256e-08 beta[277] - 9.63357e-08 beta[278]
   - 3.64234e-08 beta[279] - 3.79429e-06 beta[280] - 1.2794e-07 beta[281]
   + 1.88229e-06 beta[282] + 1.84771e-07 beta[283] - 1.39701e-06 beta[284]
   - 2.35564e-07 beta[285] + 1.14025e-06 beta[286] + 2.94919e-07 beta[287]
   >= -2.3904e-05
 R630: 1.51893e-06 beta[0] + 2.72999e-07 beta[1] - 2.80067e-08 beta[2]
   - 5.55339e-08 beta[3] - 3.15758e-08 beta[4] - 1.43885e-08 beta[5]
   - 6.27403e-09 beta[6] - 2.8581e-09 beta[7] + 7.35878e-07 beta[8]
   + 4.35486e-07 beta[9] + 1.44576e-07 beta[10] + 4.69278e-08 beta[11]
   + 1.82488e-08 beta[12] + 7.98293e-09 beta[13] + 3.67616e-09 beta[14]
   + 1.7234e-09 beta[15] + 1.14131e-06 beta[16] + 2.29447e-07 beta[17]
   + 1.23468e-07 beta[18] + 4.85618e-08 beta[19] + 1.96254e-08 beta[20]
   + 8.1921e-09 beta[21] + 3.61754e-09 beta[22] + 1.75858e-09 beta[23]
   - 1.79222e-06 beta[24] - 8.96198e-07 beta[25] - 3.23586e-07 beta[26]
   - 1.26346e-07 beta[27] - 5.17914e-08 beta[28] - 2.16639e-08 beta[29]
   - 9.23054e-09 beta[30] - 4.03704e-09 beta[31] - 9.94423e-06 beta[32]
   - 1.33596e-07 beta[33] + 4.62055e-08 beta[34] + 3.52263e-08 beta[35]
   + 1.3395e-08 beta[36] + 3.65998e-09 beta[37] + 4.23098e-10 beta[38]
   - 4.4946e-10 beta[39] - 3.02464e-06 beta[40] + 8.29706e-07 beta[41]
   + 4.5379e-07 beta[42] + 2.07479e-07 beta[43] + 8.90335e-08 beta[44]
   + 3.72738e-08 beta[45] + 1.57329e-08 beta[46] + 6.852e-09 beta[47]
   + 2.46447e-05 beta[48] - 1.53566e-06 beta[49] - 7.13244e-07 beta[50]
   - 2.62455e-07 beta[51] - 9.13095e-08 beta[52] - 3.10795e-08 beta[53]
   - 1.048e-08 beta[54] - 3.42314e-09 beta[55] + 1.70917e-05 beta[56]
   + 3.17265e-07 beta[57] - 3.27809e-07 beta[58] - 1.96572e-07 beta[59]
   - 8.97183e-08 beta[60] - 3.78057e-08 beta[61] - 1.57825e-08 beta[62]
   - 6.7829e-09 beta[63] - 4.43883e-05 beta[64] + 3.58619e-06 beta[65]
   + 1.46075e-06 beta[66] + 5.01364e-07 beta[67] + 1.7203e-07 beta[68]
   + 5.99506e-08 beta[69] + 2.14562e-08 beta[70] + 7.78643e-09 beta[71]
   - 1.90316e-05 beta[72] - 1.26125e-06 beta[73] - 4.84487e-08 beta[74]
   + 4.39376e-08 beta[75] + 2.74634e-08 beta[76] + 1.14688e-08 beta[77]
   + 4.25729e-09 beta[78] + 1.83849e-09 beta[79] + 8.27504e-05 beta[80]
   - 1.26987e-06 beta[81] - 1.15454e-06 beta[82] - 4.43862e-07 beta[83]
   - 1.61603e-07 beta[84] - 5.87246e-08 beta[85] - 2.21316e-08 beta[86]
   - 8.84083e-09 beta[87] - 1.80172e-05 beta[88] + 4.34235e-07 beta[89]
   + 3.83303e-07 beta[90] + 1.53544e-07 beta[91] + 6.29503e-08 beta[92]
   + 2.98349e-08 beta[93] + 1.51012e-08 beta[94] + 6.96433e-09 beta[95]
   + 2.89196e-07 beta[96] + 2.4176e-07 beta[97] + 1.08606e-07 beta[98]
   + 2.63591e-08 beta[99] + 7.9925e-10 beta[100] - 3.47643e-09 beta[101]
   - 1.49248e-09 beta[102] + 7.47939e-10 beta[103] + 7.25036e-08 beta[104]
   + 1.48819e-07 beta[105] + 9.78192e-08 beta[106] + 3.61815e-08 beta[107]
   + 1.02397e-08 beta[108] + 1.49303e-09 beta[109] - 1.13098e-10 beta[110]
   + 3.11328e-10 beta[111] - 3.89338e-07 beta[112] - 8.47302e-08 beta[113]
   + 1.76657e-08 beta[114] + 1.66974e-08 beta[115] + 7.15129e-09 beta[116]
   + 3.01949e-10 beta[117] - 2.79588e-09 beta[118] - 3.53911e-09 beta[119]
   - 1.06167e-06 beta[120] - 3.33461e-07 beta[121] - 1.01789e-07 beta[122]
   - 2.59984e-08 beta[123] - 3.91881e-09 beta[124] + 3.45403e-11 beta[125]
   - 8.61569e-10 beta[126] - 2.17016e-09 beta[127] - 9.28009e-07 beta[128]
   - 2.83155e-07 beta[129] - 1.14163e-07 beta[130] - 3.17972e-08 beta[131]
   + 8.69922e-10 beta[132] + 1.09193e-08 beta[133] + 1.16364e-08 beta[134]
   + 9.3839e-09 beta[135] + 1.3381e-06 beta[136] + 8.81734e-08 beta[137]
   - 2.1785e-08 beta[138] - 2.11795e-08 beta[139] - 9.96714e-09 beta[140]
   - 9.14896e-10 beta[141] + 3.90036e-09 beta[142] + 5.71394e-09 beta[143]
   + 3.47063e-06 beta[144] + 3.74456e-07 beta[145] + 2.68877e-08 beta[146]
   - 3.83702e-08 beta[147] - 4.57437e-08 beta[148] - 3.71099e-08 beta[149]
   - 2.63972e-08 beta[150] - 1.75707e-08 beta[151] + 1.21712e-06 beta[152]
   + 4.76152e-07 beta[153] + 1.32593e-07 beta[154] + 3.59469e-08 beta[155]
   + 3.27882e-09 beta[156] - 7.68263e-09 beta[157] - 1.03265e-08 beta[158]
   - 9.82469e-09 beta[159] - 2.37188e-06 beta[160] + 6.25149e-07 beta[161]
   + 3.6317e-07 beta[162] + 1.9945e-07 beta[163] + 1.15684e-07 beta[164]
   + 6.83896e-08 beta[165] + 4.04736e-08 beta[166] + 2.37618e-08 beta[167]
   - 1.57258e-06 beta[168] + 1.90139e-07 beta[169] + 1.91001e-07 beta[170]
   + 1.08554e-07 beta[171] + 5.97041e-08 beta[172] + 3.39688e-08 beta[173]
   + 2.02386e-08 beta[174] + 1.24454e-08 beta[175] - 2.84652e-06 beta[176]
   - 1.70695e-06 beta[177] - 6.47755e-07 beta[178] - 2.78907e-07 beta[179]
   - 1.35664e-07 beta[180] - 7.00133e-08 beta[181] - 3.62669e-08 beta[182]
   - 1.81682e-08 beta[183] - 9.21267e-06 beta[184] - 3.21402e-06 beta[185]
   - 1.15874e-06 beta[186] - 4.45416e-07 beta[187] - 1.79283e-07 beta[188]
   - 7.45948e-08 beta[189] - 3.09499e-08 beta[190] - 1.16668e-08 beta[191]
   + 3.17576e-07 beta[192] + 1.44901e-07 beta[193] - 1.23197e-07 beta[194]
   - 2.2558e-07 beta[195] + 1.43984e-08 beta[196] + 2.91854e-07 beta[197]
   + 1.27281e-07 beta[198] - 3.3129e-07 beta[199] - 2.04686e-07 beta[200]
   - 1.19164e-07 beta[201] + 6.83894e-08 beta[202] + 1.81798e-07 beta[203]
   + 1.78905e-08 beta[204] - 2.29873e-07 beta[205] - 1.31099e-07 beta[206]
   + 2.56954e-07 beta[207] + 1.61275e-07 beta[208] + 7.48891e-08 beta[209]
   - 5.15226e-08 beta[210] - 1.07405e-07 beta[211] - 1.23671e-08 beta[212]
   + 1.26098e-07 beta[213] + 8.38315e-08 beta[214] - 1.34345e-07 beta[215]
   + 1.00503e-07 beta[216] - 2.73947e-08 beta[217] - 7.02175e-08 beta[218]
   + 2.92467e-08 beta[219] + 7.79065e-08 beta[220] - 2.00353e-08 beta[221]
   - 8.55698e-08 beta[222] + 1.32168e-08 beta[223] - 6.29174e-07 beta[224]
   - 2.23039e-08 beta[225] + 3.20049e-07 beta[226] + 4.74784e-08 beta[227]
   - 2.34032e-07 beta[228] - 7.66034e-08 beta[229] + 1.627e-07 beta[230]
   + 9.08591e-08 beta[231] + 2.66899e-07 beta[232] + 7.14943e-08 beta[233]
   - 1.20315e-07 beta[234] - 1.17011e-07 beta[235] + 5.24475e-08 beta[236]
   + 1.5506e-07 beta[237] + 3.02232e-08 beta[238] - 1.69894e-07 beta[239]
   + 1.20775e-06 beta[240] - 8.80286e-08 beta[241] - 6.32399e-07 beta[242]
   + 1.32102e-07 beta[243] + 5.31235e-07 beta[244] - 1.58815e-07 beta[245]
   - 5.28943e-07 beta[246] + 1.62751e-07 beta[247] - 1.07476e-06 beta[248]
   + 7.09846e-08 beta[249] + 5.70329e-07 beta[250] - 9.44991e-08 beta[251]
   - 4.80251e-07 beta[252] + 9.4987e-08 beta[253] + 4.59966e-07 beta[254]
   - 8.11196e-08 beta[255] - 1.91945e-06 beta[256] - 4.88448e-08 beta[257]
   + 9.32606e-07 beta[258] + 5.19219e-08 beta[259] - 6.68379e-07 beta[260]
   - 3.03428e-08 beta[261] + 5.44174e-07 beta[262] + 5.90076e-09 beta[263]
   + 2.76468e-06 beta[264] - 4.9915e-09 beta[265] - 1.36945e-06 beta[266]
   + 2.92004e-08 beta[267] + 1.02532e-06 beta[268] - 6.73396e-08 beta[269]
   - 8.86708e-07 beta[270] + 9.32406e-08 beta[271] + 1.34679e-06 beta[272]
   + 1.46112e-07 beta[273] - 6.58225e-07 beta[274] - 2.28777e-07 beta[275]
   + 4.51734e-07 beta[276] + 2.93142e-07 beta[277] - 2.96721e-07 beta[278]
   - 3.24638e-07 beta[279] - 4.98516e-06 beta[280] - 2.56547e-07 beta[281]
   + 2.44428e-06 beta[282] + 3.75232e-07 beta[283] - 1.74725e-06 beta[284]
   - 4.45183e-07 beta[285] + 1.34122e-06 beta[286] + 4.74958e-07 beta[287]
   <= 2.3904e-05
 R631: 1.51893e-06 beta[0] + 2.72999e-07 beta[1] - 2.80067e-08 beta[2]
   - 5.55339e-08 beta[3] - 3.15758e-08 beta[4] - 1.43885e-08 beta[5]
   - 6.27403e-09 beta[6] - 2.8581e-09 beta[7] + 7.35878e-07 beta[8]
   + 4.35486e-07 beta[9] + 1.44576e-07 beta[10] + 4.69278e-08 beta[11]
   + 1.82488e-08 beta[12] + 7.98293e-09 beta[13] + 3.67616e-09 beta[14]
   + 1.7234e-09 beta[15] + 1.14131e-06 beta[16] + 2.29447e-07 beta[17]
   + 1.23468e-07 beta[18] + 4.85618e-08 beta[19] + 1.96254e-08 beta[20]
   + 8.1921e-09 beta[21] + 3.61754e-09 beta[22] + 1.75858e-09 beta[23]
   - 1.79222e-06 beta[24] - 8.96198e-07 beta[25] - 3.23586e-07 beta[26]
   - 1.26346e-07 beta[27] - 5.17914e-08 beta[28] - 2.16639e-08 beta[29]
   - 9.23054e-09 beta[30] - 4.03704e-09 beta[31] - 9.94423e-06 beta[32]
   - 1.33596e-07 beta[33] + 4.62055e-08 beta[34] + 3.52263e-08 beta[35]
   + 1.3395e-08 beta[36] + 3.65998e-09 beta[37] + 4.23098e-10 beta[38]
   - 4.4946e-10 beta[39] - 3.02464e-06 beta[40] + 8.29706e-07 beta[41]
   + 4.5379e-07 beta[42] + 2.07479e-07 beta[43] + 8.90335e-08 beta[44]
   + 3.72738e-08 beta[45] + 1.57329e-08 beta[46] + 6.852e-09 beta[47]
   + 2.46447e-05 beta[48] - 1.53566e-06 beta[49] - 7.13244e-07 beta[50]
   - 2.62455e-07 beta[51] - 9.13095e-08 beta[52] - 3.10795e-08 beta[53]
   - 1.048e-08 beta[54] - 3.42314e-09 beta[55] + 1.70917e-05 beta[56]
   + 3.17265e-07 beta[57] - 3.27809e-07 beta[58] - 1.96572e-07 beta[59]
   - 8.97183e-08 beta[60] - 3.78057e-08 beta[61] - 1.57825e-08 beta[62]
   - 6.7829e-09 beta[63] - 4.43883e-05 beta[64] + 3.58619e-06 beta[65]
   + 1.46075e-06 beta[66] + 5.01364e-07 beta[67] + 1.7203e-07 beta[68]
   + 5.99506e-08 beta[69] + 2.14562e-08 beta[70] + 7.78643e-09 beta[71]
   - 1.90316e-05 beta[72] - 1.26125e-06 beta[73] - 4.84487e-08 beta[74]
   + 4.39376e-08 beta[75] + 2.74634e-08 beta[76] + 1.14688e-08 beta[77]
   + 4.25729e-09 beta[78] + 1.83849e-09 beta[79] + 8.27504e-05 beta[80]
   - 1.26987e-06 beta[81] - 1.15454e-06 beta[82] - 4.43862e-07 beta[83]
   - 1.61603e-07 beta[84] - 5.87246e-08 beta[85] - 2.21316e-08 beta[86]
   - 8.84083e-09 beta[87] - 1.80172e-05 beta[88] + 4.34235e-07 beta[89]
   + 3.83303e-07 beta[90] + 1.53544e-07 beta[91] + 6.29503e-08 beta[92]
   + 2.98349e-08 beta[93] + 1.51012e-08 beta[94] + 6.96433e-09 beta[95]
   + 2.89196e-07 beta[96] + 2.4176e-07 beta[97] + 1.08606e-07 beta[98]
   + 2.63591e-08 beta[99] + 7.9925e-10 beta[100] - 3.47643e-09 beta[101]
   - 1.49248e-09 beta[102] + 7.47939e-10 beta[103] + 7.25036e-08 beta[104]
   + 1.48819e-07 beta[105] + 9.78192e-08 beta[106] + 3.61815e-08 beta[107]
   + 1.02397e-08 beta[108] + 1.49303e-09 beta[109] - 1.13098e-10 beta[110]
   + 3.11328e-10 beta[111] - 3.89338e-07 beta[112] - 8.47302e-08 beta[113]
   + 1.76657e-08 beta[114] + 1.66974e-08 beta[115] + 7.15129e-09 beta[116]
   + 3.01949e-10 beta[117] - 2.79588e-09 beta[118] - 3.53911e-09 beta[119]
   - 1.06167e-06 beta[120] - 3.33461e-07 beta[121] - 1.01789e-07 beta[122]
   - 2.59984e-08 beta[123] - 3.91881e-09 beta[124] + 3.45403e-11 beta[125]
   - 8.61569e-10 beta[126] - 2.17016e-09 beta[127] - 9.28009e-07 beta[128]
   - 2.83155e-07 beta[129] - 1.14163e-07 beta[130] - 3.17972e-08 beta[131]
   + 8.69922e-10 beta[132] + 1.09193e-08 beta[133] + 1.16364e-08 beta[134]
   + 9.3839e-09 beta[135] + 1.3381e-06 beta[136] + 8.81734e-08 beta[137]
   - 2.1785e-08 beta[138] - 2.11795e-08 beta[139] - 9.96714e-09 beta[140]
   - 9.14896e-10 beta[141] + 3.90036e-09 beta[142] + 5.71394e-09 beta[143]
   + 3.47063e-06 beta[144] + 3.74456e-07 beta[145] + 2.68877e-08 beta[146]
   - 3.83702e-08 beta[147] - 4.57437e-08 beta[148] - 3.71099e-08 beta[149]
   - 2.63972e-08 beta[150] - 1.75707e-08 beta[151] + 1.21712e-06 beta[152]
   + 4.76152e-07 beta[153] + 1.32593e-07 beta[154] + 3.59469e-08 beta[155]
   + 3.27882e-09 beta[156] - 7.68263e-09 beta[157] - 1.03265e-08 beta[158]
   - 9.82469e-09 beta[159] - 2.37188e-06 beta[160] + 6.25149e-07 beta[161]
   + 3.6317e-07 beta[162] + 1.9945e-07 beta[163] + 1.15684e-07 beta[164]
   + 6.83896e-08 beta[165] + 4.04736e-08 beta[166] + 2.37618e-08 beta[167]
   - 1.57258e-06 beta[168] + 1.90139e-07 beta[169] + 1.91001e-07 beta[170]
   + 1.08554e-07 beta[171] + 5.97041e-08 beta[172] + 3.39688e-08 beta[173]
   + 2.02386e-08 beta[174] + 1.24454e-08 beta[175] - 2.84652e-06 beta[176]
   - 1.70695e-06 beta[177] - 6.47755e-07 beta[178] - 2.78907e-07 beta[179]
   - 1.35664e-07 beta[180] - 7.00133e-08 beta[181] - 3.62669e-08 beta[182]
   - 1.81682e-08 beta[183] - 9.21267e-06 beta[184] - 3.21402e-06 beta[185]
   - 1.15874e-06 beta[186] - 4.45416e-07 beta[187] - 1.79283e-07 beta[188]
   - 7.45948e-08 beta[189] - 3.09499e-08 beta[190] - 1.16668e-08 beta[191]
   + 3.17576e-07 beta[192] + 1.44901e-07 beta[193] - 1.23197e-07 beta[194]
   - 2.2558e-07 beta[195] + 1.43984e-08 beta[196] + 2.91854e-07 beta[197]
   + 1.27281e-07 beta[198] - 3.3129e-07 beta[199] - 2.04686e-07 beta[200]
   - 1.19164e-07 beta[201] + 6.83894e-08 beta[202] + 1.81798e-07 beta[203]
   + 1.78905e-08 beta[204] - 2.29873e-07 beta[205] - 1.31099e-07 beta[206]
   + 2.56954e-07 beta[207] + 1.61275e-07 beta[208] + 7.48891e-08 beta[209]
   - 5.15226e-08 beta[210] - 1.07405e-07 beta[211] - 1.23671e-08 beta[212]
   + 1.26098e-07 beta[213] + 8.38315e-08 beta[214] - 1.34345e-07 beta[215]
   + 1.00503e-07 beta[216] - 2.73947e-08 beta[217] - 7.02175e-08 beta[218]
   + 2.92467e-08 beta[219] + 7.79065e-08 beta[220] - 2.00353e-08 beta[221]
   - 8.55698e-08 beta[222] + 1.32168e-08 beta[223] - 6.29174e-07 beta[224]
   - 2.23039e-08 beta[225] + 3.20049e-07 beta[226] + 4.74784e-08 beta[227]
   - 2.34032e-07 beta[228] - 7.66034e-08 beta[229] + 1.627e-07 beta[230]
   + 9.08591e-08 beta[231] + 2.66899e-07 beta[232] + 7.14943e-08 beta[233]
   - 1.20315e-07 beta[234] - 1.17011e-07 beta[235] + 5.24475e-08 beta[236]
   + 1.5506e-07 beta[237] + 3.02232e-08 beta[238] - 1.69894e-07 beta[239]
   + 1.20775e-06 beta[240] - 8.80286e-08 beta[241] - 6.32399e-07 beta[242]
   + 1.32102e-07 beta[243] + 5.31235e-07 beta[244] - 1.58815e-07 beta[245]
   - 5.28943e-07 beta[246] + 1.62751e-07 beta[247] - 1.07476e-06 beta[248]
   + 7.09846e-08 beta[249] + 5.70329e-07 beta[250] - 9.44991e-08 beta[251]
   - 4.80251e-07 beta[252] + 9.4987e-08 beta[253] + 4.59966e-07 beta[254]
   - 8.11196e-08 beta[255] - 1.91945e-06 beta[256] - 4.88448e-08 beta[257]
   + 9.32606e-07 beta[258] + 5.19219e-08 beta[259] - 6.68379e-07 beta[260]
   - 3.03428e-08 beta[261] + 5.44174e-07 beta[262] + 5.90076e-09 beta[263]
   + 2.76468e-06 beta[264] - 4.9915e-09 beta[265] - 1.36945e-06 beta[266]
   + 2.92004e-08 beta[267] + 1.02532e-06 beta[268] - 6.73396e-08 beta[269]
   - 8.86708e-07 beta[270] + 9.32406e-08 beta[271] + 1.34679e-06 beta[272]
   + 1.46112e-07 beta[273] - 6.58225e-07 beta[274] - 2.28777e-07 beta[275]
   + 4.51734e-07 beta[276] + 2.93142e-07 beta[277] - 2.96721e-07 beta[278]
   - 3.24638e-07 beta[279] - 4.98516e-06 beta[280] - 2.56547e-07 beta[281]
   + 2.44428e-06 beta[282] + 3.75232e-07 beta[283] - 1.74725e-06 beta[284]
   - 4.45183e-07 beta[285] + 1.34122e-06 beta[286] + 4.74958e-07 beta[287]
   >= -2.3904e-05
 R632: 1.27419e-09 beta[0] - 6.90685e-10 beta[1] + 2.73964e-10 beta[2]
   + 6.69718e-10 beta[3] + 1.29658e-10 beta[4] + 7.83075e-12 beta[5]
   + 1.24278e-11 beta[6] + 1.54108e-11 beta[7] - 3.22013e-09 beta[8]
   - 1.07359e-09 beta[9] - 1.0667e-09 beta[10] + 4.26443e-10 beta[11]
   + 2.74271e-10 beta[12] + 8.43328e-11 beta[13] + 5.82899e-12 beta[14]
   - 1.55706e-11 beta[15] - 9.31656e-09 beta[16] + 4.63233e-10 beta[17]
   - 3.53272e-09 beta[18] - 1.40975e-09 beta[19] - 4.03241e-10 beta[20]
   - 1.06483e-10 beta[21] - 2.43112e-11 beta[22] - 5.14579e-12 beta[23]
   + 5.94068e-08 beta[24] + 1.57029e-08 beta[25] + 2.55833e-09 beta[26]
   - 1.57269e-10 beta[27] - 1.23503e-10 beta[28] - 1.26717e-11 beta[29]
   + 2.54968e-11 beta[30] + 3.56716e-11 beta[31] - 5.56884e-08 beta[32]
   + 1.95506e-08 beta[33] + 1.08388e-08 beta[34] + 3.14032e-09 beta[35]
   + 8.78997e-10 beta[36] + 2.81367e-10 beta[37] + 1.0988e-10 beta[38]
   + 6.31626e-11 beta[39] - 3.99816e-07 beta[40] - 6.34653e-08 beta[41]
   - 1.00359e-08 beta[42] - 1.90592e-09 beta[43] - 6.71642e-10 beta[44]
   - 3.77378e-10 beta[45] - 2.65527e-10 beta[46] - 2.08733e-10 beta[47]
   + 2.86236e-07 beta[48] - 5.55542e-08 beta[49] - 1.97239e-08 beta[50]
   - 5.48917e-09 beta[51] - 1.58351e-09 beta[52] - 5.35332e-10 beta[53]
   - 2.6908e-10 beta[54] - 2.16073e-10 beta[55] + 1.13317e-06 beta[56]
   + 1.5661e-07 beta[57] + 3.2083e-08 beta[58] + 8.83689e-09 beta[59]
   + 3.31057e-09 beta[60] + 1.82592e-09 beta[61] + 1.33778e-09 beta[62]
   + 1.09272e-09 beta[63] - 7.02585e-07 beta[64] + 6.43076e-08 beta[65]
   + 2.19969e-08 beta[66] + 6.81651e-09 beta[67] + 1.54009e-09 beta[68]
   - 1.12558e-10 beta[69] - 4.27666e-10 beta[70] - 3.4596e-10 beta[71]
   - 1.75112e-06 beta[72] - 3.0024e-07 beta[73] - 8.5318e-08 beta[74]
   - 2.65223e-08 beta[75] - 9.57357e-09 beta[76] - 4.88711e-09 beta[77]
   - 3.44733e-09 beta[78] - 2.7981e-09 beta[79] + 1.19363e-06 beta[80]
   + 6.67515e-08 beta[81] + 8.46291e-09 beta[82] + 6.72303e-10 beta[83]
   + 3.31576e-09 beta[84] + 4.49781e-09 beta[85] + 4.13946e-09 beta[86]
   + 3.29677e-09 beta[87] + 1.06775e-06 beta[88] + 4.89024e-07 beta[89]
   + 1.91088e-07 beta[90] + 5.94767e-08 beta[91] + 1.83895e-08 beta[92]
   + 7.51071e-09 beta[93] + 4.74801e-09 beta[94] + 3.89383e-09 beta[95]
   - 1.38004e-08 beta[96] + 4.94422e-09 beta[97] - 1.97201e-09 beta[98]
   - 2.03806e-10 beta[99] + 3.31242e-10 beta[100] + 1.17623e-10 beta[101]
   - 2.30094e-11 beta[102] - 5.33755e-11 beta[103] - 1.36896e-08 beta[104]
   + 5.12554e-09 beta[105] - 1.21987e-09 beta[106] - 4.99391e-10 beta[107]
   + 6.94123e-11 beta[108] + 9.0709e-11 beta[109] + 3.1249e-11 beta[110]
   - 5.66558e-13 beta[111] - 1.07748e-08 beta[112] + 4.86535e-09 beta[113]
   + 8.39212e-10 beta[114] - 2.82862e-10 beta[115] - 1.26293e-10 beta[116]
   + 6.62005e-11 beta[117] + 1.1663e-10 beta[118] + 1.10057e-10 beta[119]
   - 1.01105e-08 beta[120] + 1.00457e-09 beta[121] + 2.93511e-09 beta[122]
   + 8.18365e-10 beta[123] + 1.07069e-10 beta[124] + 1.13311e-10 beta[125]
   + 1.73259e-10 beta[126] + 1.91048e-10 beta[127] - 1.75352e-08 beta[128]
   - 1.12892e-08 beta[129] - 2.07758e-10 beta[130] + 2.77015e-10 beta[131]
   - 3.33739e-10 beta[132] - 4.75681e-10 beta[133] - 4.28006e-10 beta[134]
   - 3.62082e-10 beta[135] + 1.19246e-08 beta[136] - 1.77758e-08 beta[137]
   - 6.37142e-09 beta[138] - 2.03852e-09 beta[139] - 1.19123e-09 beta[140]
   - 1.05214e-09 beta[141] - 9.54556e-10 beta[142] - 8.64286e-10 beta[143]
   + 1.07871e-07 beta[144] + 1.34567e-08 beta[145] + 1.92738e-09 beta[146]
   + 2.19716e-09 beta[147] + 2.3274e-09 beta[148] + 1.95439e-09 beta[149]
   + 1.61765e-09 beta[150] + 1.38798e-09 beta[151] + 8.62138e-08 beta[152]
   + 4.12395e-08 beta[153] + 1.25813e-08 beta[154] + 5.97151e-09 beta[155]
   + 4.27602e-09 beta[156] + 3.30118e-09 beta[157] + 2.64454e-09 beta[158]
   + 2.24946e-09 beta[159] - 1.85773e-07 beta[160] - 2.18571e-08 beta[161]
   - 1.52008e-08 beta[162] - 1.2369e-08 beta[163] - 9.03686e-09 beta[164]
   - 6.82852e-09 beta[165] - 5.61164e-09 beta[166] - 4.88505e-09 beta[167]
   - 2.64588e-07 beta[168] - 5.65157e-08 beta[169] - 2.00532e-08 beta[170]
   - 1.28581e-08 beta[171] - 8.83515e-09 beta[172] - 5.8401e-09 beta[173]
   - 4.06164e-09 beta[174] - 3.17012e-09 beta[175] + 1.41423e-07 beta[176]
   + 6.49448e-08 beta[177] + 5.81266e-08 beta[178] + 3.9234e-08 beta[179]
   + 2.57335e-08 beta[180] + 1.88116e-08 beta[181] + 1.53801e-08 beta[182]
   + 1.34224e-08 beta[183] + 3.08142e-07 beta[184] + 2.01959e-08 beta[185]
   + 1.58304e-08 beta[186] + 1.49294e-08 beta[187] + 8.05255e-09 beta[188]
   + 2.38016e-09 beta[189] - 5.98296e-10 beta[190] - 1.70052e-09 beta[191]
   - 6.72131e-11 beta[192] + 9.0851e-10 beta[193] - 8.22583e-10 beta[194]
   - 1.07752e-09 beta[195] + 2.16559e-09 beta[196] + 3.39604e-10 beta[197]
   - 4.52621e-09 beta[198] + 1.47036e-09 beta[199] - 4.22695e-10 beta[200]
   - 4.75246e-10 beta[201] + 6.93175e-10 beta[202] + 5.53485e-10 beta[203]
   - 1.30525e-09 beta[204] - 1.35948e-11 beta[205] + 2.45187e-09 beta[206]
   - 1.25102e-09 beta[207] + 1.74802e-09 beta[208] - 2.48012e-10 beta[209]
   - 8.48579e-10 beta[210] + 3.31569e-10 beta[211] + 4.1527e-10 beta[212]
   - 5.37333e-10 beta[213] + 5.05904e-11 beta[214] + 7.67296e-10 beta[215]
   - 3.15929e-09 beta[216] + 6.02715e-10 beta[217] + 1.25056e-09 beta[218]
   - 6.95675e-10 beta[219] - 1.90164e-10 beta[220] + 4.52134e-10 beta[221]
   - 1.051e-09 beta[222] + 6.74719e-10 beta[223] - 2.56694e-09 beta[224]
   - 4.5873e-10 beta[225] + 1.51839e-09 beta[226] + 4.98266e-10 beta[227]
   - 1.5242e-09 beta[228] - 9.8248e-11 beta[229] + 1.52304e-09 beta[230]
   - 1.85241e-09 beta[231] + 9.41338e-09 beta[232] + 3.6553e-10 beta[233]
   - 4.66804e-09 beta[234] - 6.81724e-10 beta[235] + 3.12837e-09 beta[236]
   + 1.08374e-09 beta[237] - 9.3225e-10 beta[238] - 2.65758e-10 beta[239]
   + 2.3877e-09 beta[240] + 1.74467e-10 beta[241] - 1.08891e-09 beta[242]
   + 3.48033e-10 beta[243] + 9.58211e-10 beta[244] - 2.13013e-09 beta[245]
   - 2.73427e-09 beta[246] + 4.59768e-09 beta[247] - 1.42239e-08 beta[248]
   - 2.04623e-09 beta[249] + 6.29205e-09 beta[250] + 2.45451e-09 beta[251]
   - 2.98048e-09 beta[252] - 6.29458e-10 beta[253] + 9.41553e-10 beta[254]
   - 4.54961e-09 beta[255] - 7.43961e-09 beta[256] + 3.65007e-09 beta[257]
   + 4.5642e-09 beta[258] - 6.07145e-09 beta[259] - 6.40826e-09 beta[260]
   + 7.30364e-09 beta[261] + 1.14901e-08 beta[262] - 4.59846e-09 beta[263]
   + 1.57665e-08 beta[264] - 1.17748e-09 beta[265] - 6.31596e-09 beta[266]
   + 4.47735e-09 beta[267] + 4.23272e-09 beta[268] - 1.05665e-08 beta[269]
   - 8.0348e-09 beta[270] + 1.70411e-08 beta[271] + 3.24258e-08 beta[272]
   - 6.9174e-09 beta[273] - 2.15791e-08 beta[274] + 6.98215e-09 beta[275]
   + 2.47276e-08 beta[276] - 1.22278e-10 beta[277] - 2.79475e-08 beta[278]
   - 1.46695e-08 beta[279] - 3.40746e-08 beta[280] + 1.49109e-08 beta[281]
   + 2.207e-08 beta[282] - 2.27057e-08 beta[283] - 2.84505e-08 beta[284]
   + 2.5532e-08 beta[285] + 4.35069e-08 beta[286] - 1.80336e-08 beta[287]
   <= 2.3904e-05
 R633: 1.27419e-09 beta[0] - 6.90685e-10 beta[1] + 2.73964e-10 beta[2]
   + 6.69718e-10 beta[3] + 1.29658e-10 beta[4] + 7.83075e-12 beta[5]
   + 1.24278e-11 beta[6] + 1.54108e-11 beta[7] - 3.22013e-09 beta[8]
   - 1.07359e-09 beta[9] - 1.0667e-09 beta[10] + 4.26443e-10 beta[11]
   + 2.74271e-10 beta[12] + 8.43328e-11 beta[13] + 5.82899e-12 beta[14]
   - 1.55706e-11 beta[15] - 9.31656e-09 beta[16] + 4.63233e-10 beta[17]
   - 3.53272e-09 beta[18] - 1.40975e-09 beta[19] - 4.03241e-10 beta[20]
   - 1.06483e-10 beta[21] - 2.43112e-11 beta[22] - 5.14579e-12 beta[23]
   + 5.94068e-08 beta[24] + 1.57029e-08 beta[25] + 2.55833e-09 beta[26]
   - 1.57269e-10 beta[27] - 1.23503e-10 beta[28] - 1.26717e-11 beta[29]
   + 2.54968e-11 beta[30] + 3.56716e-11 beta[31] - 5.56884e-08 beta[32]
   + 1.95506e-08 beta[33] + 1.08388e-08 beta[34] + 3.14032e-09 beta[35]
   + 8.78997e-10 beta[36] + 2.81367e-10 beta[37] + 1.0988e-10 beta[38]
   + 6.31626e-11 beta[39] - 3.99816e-07 beta[40] - 6.34653e-08 beta[41]
   - 1.00359e-08 beta[42] - 1.90592e-09 beta[43] - 6.71642e-10 beta[44]
   - 3.77378e-10 beta[45] - 2.65527e-10 beta[46] - 2.08733e-10 beta[47]
   + 2.86236e-07 beta[48] - 5.55542e-08 beta[49] - 1.97239e-08 beta[50]
   - 5.48917e-09 beta[51] - 1.58351e-09 beta[52] - 5.35332e-10 beta[53]
   - 2.6908e-10 beta[54] - 2.16073e-10 beta[55] + 1.13317e-06 beta[56]
   + 1.5661e-07 beta[57] + 3.2083e-08 beta[58] + 8.83689e-09 beta[59]
   + 3.31057e-09 beta[60] + 1.82592e-09 beta[61] + 1.33778e-09 beta[62]
   + 1.09272e-09 beta[63] - 7.02585e-07 beta[64] + 6.43076e-08 beta[65]
   + 2.19969e-08 beta[66] + 6.81651e-09 beta[67] + 1.54009e-09 beta[68]
   - 1.12558e-10 beta[69] - 4.27666e-10 beta[70] - 3.4596e-10 beta[71]
   - 1.75112e-06 beta[72] - 3.0024e-07 beta[73] - 8.5318e-08 beta[74]
   - 2.65223e-08 beta[75] - 9.57357e-09 beta[76] - 4.88711e-09 beta[77]
   - 3.44733e-09 beta[78] - 2.7981e-09 beta[79] + 1.19363e-06 beta[80]
   + 6.67515e-08 beta[81] + 8.46291e-09 beta[82] + 6.72303e-10 beta[83]
   + 3.31576e-09 beta[84] + 4.49781e-09 beta[85] + 4.13946e-09 beta[86]
   + 3.29677e-09 beta[87] + 1.06775e-06 beta[88] + 4.89024e-07 beta[89]
   + 1.91088e-07 beta[90] + 5.94767e-08 beta[91] + 1.83895e-08 beta[92]
   + 7.51071e-09 beta[93] + 4.74801e-09 beta[94] + 3.89383e-09 beta[95]
   - 1.38004e-08 beta[96] + 4.94422e-09 beta[97] - 1.97201e-09 beta[98]
   - 2.03806e-10 beta[99] + 3.31242e-10 beta[100] + 1.17623e-10 beta[101]
   - 2.30094e-11 beta[102] - 5.33755e-11 beta[103] - 1.36896e-08 beta[104]
   + 5.12554e-09 beta[105] - 1.21987e-09 beta[106] - 4.99391e-10 beta[107]
   + 6.94123e-11 beta[108] + 9.0709e-11 beta[109] + 3.1249e-11 beta[110]
   - 5.66558e-13 beta[111] - 1.07748e-08 beta[112] + 4.86535e-09 beta[113]
   + 8.39212e-10 beta[114] - 2.82862e-10 beta[115] - 1.26293e-10 beta[116]
   + 6.62005e-11 beta[117] + 1.1663e-10 beta[118] + 1.10057e-10 beta[119]
   - 1.01105e-08 beta[120] + 1.00457e-09 beta[121] + 2.93511e-09 beta[122]
   + 8.18365e-10 beta[123] + 1.07069e-10 beta[124] + 1.13311e-10 beta[125]
   + 1.73259e-10 beta[126] + 1.91048e-10 beta[127] - 1.75352e-08 beta[128]
   - 1.12892e-08 beta[129] - 2.07758e-10 beta[130] + 2.77015e-10 beta[131]
   - 3.33739e-10 beta[132] - 4.75681e-10 beta[133] - 4.28006e-10 beta[134]
   - 3.62082e-10 beta[135] + 1.19246e-08 beta[136] - 1.77758e-08 beta[137]
   - 6.37142e-09 beta[138] - 2.03852e-09 beta[139] - 1.19123e-09 beta[140]
   - 1.05214e-09 beta[141] - 9.54556e-10 beta[142] - 8.64286e-10 beta[143]
   + 1.07871e-07 beta[144] + 1.34567e-08 beta[145] + 1.92738e-09 beta[146]
   + 2.19716e-09 beta[147] + 2.3274e-09 beta[148] + 1.95439e-09 beta[149]
   + 1.61765e-09 beta[150] + 1.38798e-09 beta[151] + 8.62138e-08 beta[152]
   + 4.12395e-08 beta[153] + 1.25813e-08 beta[154] + 5.97151e-09 beta[155]
   + 4.27602e-09 beta[156] + 3.30118e-09 beta[157] + 2.64454e-09 beta[158]
   + 2.24946e-09 beta[159] - 1.85773e-07 beta[160] - 2.18571e-08 beta[161]
   - 1.52008e-08 beta[162] - 1.2369e-08 beta[163] - 9.03686e-09 beta[164]
   - 6.82852e-09 beta[165] - 5.61164e-09 beta[166] - 4.88505e-09 beta[167]
   - 2.64588e-07 beta[168] - 5.65157e-08 beta[169] - 2.00532e-08 beta[170]
   - 1.28581e-08 beta[171] - 8.83515e-09 beta[172] - 5.8401e-09 beta[173]
   - 4.06164e-09 beta[174] - 3.17012e-09 beta[175] + 1.41423e-07 beta[176]
   + 6.49448e-08 beta[177] + 5.81266e-08 beta[178] + 3.9234e-08 beta[179]
   + 2.57335e-08 beta[180] + 1.88116e-08 beta[181] + 1.53801e-08 beta[182]
   + 1.34224e-08 beta[183] + 3.08142e-07 beta[184] + 2.01959e-08 beta[185]
   + 1.58304e-08 beta[186] + 1.49294e-08 beta[187] + 8.05255e-09 beta[188]
   + 2.38016e-09 beta[189] - 5.98296e-10 beta[190] - 1.70052e-09 beta[191]
   - 6.72131e-11 beta[192] + 9.0851e-10 beta[193] - 8.22583e-10 beta[194]
   - 1.07752e-09 beta[195] + 2.16559e-09 beta[196] + 3.39604e-10 beta[197]
   - 4.52621e-09 beta[198] + 1.47036e-09 beta[199] - 4.22695e-10 beta[200]
   - 4.75246e-10 beta[201] + 6.93175e-10 beta[202] + 5.53485e-10 beta[203]
   - 1.30525e-09 beta[204] - 1.35948e-11 beta[205] + 2.45187e-09 beta[206]
   - 1.25102e-09 beta[207] + 1.74802e-09 beta[208] - 2.48012e-10 beta[209]
   - 8.48579e-10 beta[210] + 3.31569e-10 beta[211] + 4.1527e-10 beta[212]
   - 5.37333e-10 beta[213] + 5.05904e-11 beta[214] + 7.67296e-10 beta[215]
   - 3.15929e-09 beta[216] + 6.02715e-10 beta[217] + 1.25056e-09 beta[218]
   - 6.95675e-10 beta[219] - 1.90164e-10 beta[220] + 4.52134e-10 beta[221]
   - 1.051e-09 beta[222] + 6.74719e-10 beta[223] - 2.56694e-09 beta[224]
   - 4.5873e-10 beta[225] + 1.51839e-09 beta[226] + 4.98266e-10 beta[227]
   - 1.5242e-09 beta[228] - 9.8248e-11 beta[229] + 1.52304e-09 beta[230]
   - 1.85241e-09 beta[231] + 9.41338e-09 beta[232] + 3.6553e-10 beta[233]
   - 4.66804e-09 beta[234] - 6.81724e-10 beta[235] + 3.12837e-09 beta[236]
   + 1.08374e-09 beta[237] - 9.3225e-10 beta[238] - 2.65758e-10 beta[239]
   + 2.3877e-09 beta[240] + 1.74467e-10 beta[241] - 1.08891e-09 beta[242]
   + 3.48033e-10 beta[243] + 9.58211e-10 beta[244] - 2.13013e-09 beta[245]
   - 2.73427e-09 beta[246] + 4.59768e-09 beta[247] - 1.42239e-08 beta[248]
   - 2.04623e-09 beta[249] + 6.29205e-09 beta[250] + 2.45451e-09 beta[251]
   - 2.98048e-09 beta[252] - 6.29458e-10 beta[253] + 9.41553e-10 beta[254]
   - 4.54961e-09 beta[255] - 7.43961e-09 beta[256] + 3.65007e-09 beta[257]
   + 4.5642e-09 beta[258] - 6.07145e-09 beta[259] - 6.40826e-09 beta[260]
   + 7.30364e-09 beta[261] + 1.14901e-08 beta[262] - 4.59846e-09 beta[263]
   + 1.57665e-08 beta[264] - 1.17748e-09 beta[265] - 6.31596e-09 beta[266]
   + 4.47735e-09 beta[267] + 4.23272e-09 beta[268] - 1.05665e-08 beta[269]
   - 8.0348e-09 beta[270] + 1.70411e-08 beta[271] + 3.24258e-08 beta[272]
   - 6.9174e-09 beta[273] - 2.15791e-08 beta[274] + 6.98215e-09 beta[275]
   + 2.47276e-08 beta[276] - 1.22278e-10 beta[277] - 2.79475e-08 beta[278]
   - 1.46695e-08 beta[279] - 3.40746e-08 beta[280] + 1.49109e-08 beta[281]
   + 2.207e-08 beta[282] - 2.27057e-08 beta[283] - 2.84505e-08 beta[284]
   + 2.5532e-08 beta[285] + 4.35069e-08 beta[286] - 1.80336e-08 beta[287]
   >= -2.3904e-05
 R634: 2.89708e-09 beta[0] + 1.14387e-09 beta[1] - 3.30744e-09 beta[2]
   + 7.19721e-10 beta[3] + 5.0729e-10 beta[4] + 5.74561e-11 beta[5]
   - 3.60086e-11 beta[6] - 3.66621e-11 beta[7] - 1.02357e-08 beta[8]
   + 3.20577e-09 beta[9] - 4.62303e-09 beta[10] - 3.61101e-10 beta[11]
   + 3.74183e-10 beta[12] + 1.50912e-10 beta[13] + 5.03505e-11 beta[14]
   + 2.62818e-11 beta[15] + 3.10305e-08 beta[16] + 1.42504e-08 beta[17]
   - 3.82395e-09 beta[18] - 2.23588e-09 beta[19] - 3.31891e-10 beta[20]
   + 3.98304e-11 beta[21] + 3.91545e-11 beta[22] + 1.43627e-11 beta[23]
   + 1.66867e-08 beta[24] + 3.31263e-08 beta[25] + 4.60748e-09 beta[26]
   - 2.21321e-09 beta[27] - 1.21786e-09 beta[28] - 3.74351e-10 beta[29]
   - 9.88503e-11 beta[30] - 2.85935e-11 beta[31] - 2.01161e-07 beta[32]
   + 3.33736e-08 beta[33] + 2.14814e-08 beta[34] + 4.44794e-09 beta[35]
   + 3.26766e-10 beta[36] - 1.32412e-10 beta[37] - 9.62949e-11 beta[38]
   - 4.59089e-11 beta[39] - 3.05142e-07 beta[40] - 4.83916e-08 beta[41]
   + 1.36752e-08 beta[42] + 8.13247e-09 beta[43] + 2.5285e-09 beta[44]
   + 7.488e-10 beta[45] + 2.39412e-10 beta[46] + 7.29841e-11 beta[47]
   - 2.03621e-07 beta[48] - 1.88337e-07 beta[49] - 3.73852e-08 beta[50]
   - 3.78339e-09 beta[51] - 4.10641e-11 beta[52] + 1.32454e-10 beta[53]
   + 1.08319e-10 beta[54] + 9.05169e-11 beta[55] + 8.2033e-08 beta[56]
   - 1.60408e-07 beta[57] - 6.45686e-08 beta[58] - 1.49023e-08 beta[59]
   - 3.23698e-09 beta[60] - 9.40493e-10 beta[61] - 3.66252e-10 beta[62]
   - 1.38612e-10 beta[63] + 1.68159e-06 beta[64] + 2.43876e-07 beta[65]
   - 3.75549e-09 beta[66] - 8.60275e-09 beta[67] - 2.17633e-09 beta[68]
   - 4.42096e-10 beta[69] - 2.04873e-10 beta[70] - 2.10454e-10 beta[71]
   + 3.39807e-06 beta[72] + 8.33657e-07 beta[73] + 1.48891e-07 beta[74]
   + 2.0665e-08 beta[75] + 2.99914e-09 beta[76] + 8.59887e-10 beta[77]
   + 4.49799e-10 beta[78] + 2.46265e-10 beta[79] - 1.7082e-06 beta[80]
   + 3.29964e-07 beta[81] + 1.7045e-07 beta[82] + 4.23531e-08 beta[83]
   + 8.61042e-09 beta[84] + 1.89108e-09 beta[85] + 7.65939e-10 beta[86]
   + 5.8359e-10 beta[87] - 1.21197e-05 beta[88] - 1.93303e-06 beta[89]
   - 2.53706e-07 beta[90] - 2.80547e-08 beta[91] - 3.29005e-09 beta[92]
   - 1.10455e-09 beta[93] - 8.27295e-10 beta[94] - 6.35179e-10 beta[95]
   + 2.13269e-08 beta[96] + 1.09914e-08 beta[97] - 2.56451e-09 beta[98]
   - 6.75507e-09 beta[99] - 4.65177e-10 beta[100] + 1.01829e-09 beta[101]
   + 6.79298e-10 beta[102] + 2.77731e-10 beta[103] + 7.57997e-09 beta[104]
   + 1.46744e-08 beta[105] + 1.41439e-09 beta[106] - 5.96387e-09 beta[107]
   - 1.89034e-09 beta[108] - 7.1837e-11 beta[109] + 2.20598e-10 beta[110]
   + 1.53363e-10 beta[111] - 1.78052e-08 beta[112] + 1.87788e-08 beta[113]
   + 1.02219e-08 beta[114] - 1.53304e-09 beta[115] - 2.43659e-09 beta[116]
   - 1.29497e-09 beta[117] - 5.17308e-10 beta[118] - 1.78466e-10 beta[119]
   - 6.08259e-08 beta[120] + 1.05365e-08 beta[121] + 1.87984e-08 beta[122]
   + 7.75419e-09 beta[123] + 8.98394e-10 beta[124] - 6.09156e-10 beta[125]
   - 5.29327e-10 beta[126] - 2.86523e-10 beta[127] - 1.14624e-07 beta[128]
   - 3.12642e-08 beta[129] + 8.56806e-09 beta[130] + 1.2583e-08 beta[131]
   + 5.58734e-09 beta[132] + 1.86758e-09 beta[133] + 5.7374e-10 beta[134]
   + 1.86934e-10 beta[135] - 1.0427e-07 beta[136] - 9.25528e-08 beta[137]
   - 3.1399e-08 beta[138] - 7.05477e-10 beta[139] + 3.25025e-09 beta[140]
   + 2.06609e-09 beta[141] + 9.84654e-10 beta[142] + 4.52321e-10 beta[143]
   + 9.7048e-08 beta[144] - 7.86468e-08 beta[145] - 6.22985e-08 beta[146]
   - 2.31407e-08 beta[147] - 6.35499e-09 beta[148] - 1.48584e-09 beta[149]
   - 3.44253e-10 beta[150] - 9.93577e-11 beta[151] + 4.86724e-07 beta[152]
   + 9.93643e-08 beta[153] - 1.77899e-08 beta[154] - 2.22874e-08 beta[155]
   - 1.05949e-08 beta[156] - 4.12989e-09 beta[157] - 1.62405e-09 beta[158]
   - 7.58534e-10 beta[159] + 6.73491e-07 beta[160] + 3.33353e-07 beta[161]
   + 1.01415e-07 beta[162] + 1.8614e-08 beta[163] + 1.18418e-09 beta[164]
   - 8.8656e-10 beta[165] - 6.18525e-10 beta[166] - 3.6741e-10 beta[167]
   - 1.19556e-07 beta[168] + 2.38776e-07 beta[169] + 1.54136e-07 beta[170]
   + 6.02507e-08 beta[171] + 2.06344e-08 beta[172] + 7.29294e-09 beta[173]
   + 3.15753e-09 beta[174] + 1.87816e-09 beta[175] - 1.91335e-06 beta[176]
   - 4.49259e-07 beta[177] - 4.69374e-08 beta[178] + 1.36455e-08 beta[179]
   + 1.13429e-08 beta[180] + 5.35979e-09 beta[181] + 2.3158e-09 beta[182]
   + 1.18021e-09 beta[183] - 2.19176e-06 beta[184] - 9.71523e-07 beta[185]
   - 3.34092e-07 beta[186] - 1.03783e-07 beta[187] - 3.40614e-08 beta[188]
   - 1.36263e-08 beta[189] - 7.41912e-09 beta[190] - 5.30087e-09 beta[191]
   - 3.33092e-08 beta[192] + 9.10543e-09 beta[193] + 1.13292e-08 beta[194]
   - 1.48696e-08 beta[195] + 3.08573e-09 beta[196] + 2.30741e-08 beta[197]
   - 2.25488e-08 beta[198] - 3.94428e-08 beta[199] + 2.13317e-08 beta[200]
   - 6.70389e-09 beta[201] - 6.54302e-09 beta[202] + 1.0856e-08 beta[203]
   - 3.95804e-09 beta[204] - 1.66398e-08 beta[205] + 1.84227e-08 beta[206]
   + 2.8181e-08 beta[207] - 1.31553e-09 beta[208] + 2.85786e-09 beta[209]
   - 1.39769e-09 beta[210] - 4.48208e-09 beta[211] + 5.31204e-09 beta[212]
   + 6.52569e-09 beta[213] - 1.146e-08 beta[214] - 1.05889e-08 beta[215]
   - 1.16246e-08 beta[216] + 1.06095e-09 beta[217] + 5.53957e-09 beta[218]
   - 1.90248e-09 beta[219] - 3.36851e-09 beta[220] + 3.37601e-09 beta[221]
   + 1.20637e-09 beta[222] - 6.36261e-09 beta[223] + 9.39422e-09 beta[224]
   - 3.76461e-09 beta[225] - 2.57479e-09 beta[226] + 6.16536e-09 beta[227]
   - 2.72027e-09 beta[228] - 9.69035e-09 beta[229] + 1.02005e-08 beta[230]
   + 1.68808e-08 beta[231] - 4.17657e-09 beta[232] + 4.1401e-09 beta[233]
   - 7.70029e-10 beta[234] - 6.58475e-09 beta[235] + 6.65926e-09 beta[236]
   + 1.00181e-08 beta[237] - 1.5669e-08 beta[238] - 1.7528e-08 beta[239]
   + 3.31418e-09 beta[240] - 1.82269e-09 beta[241] + 4.90282e-10 beta[242]
   + 2.64887e-09 beta[243] - 4.95169e-09 beta[244] - 3.7769e-09 beta[245]
   + 1.20094e-08 beta[246] + 7.84191e-09 beta[247] + 3.95973e-09 beta[248]
   - 1.45242e-09 beta[249] - 1.99991e-09 beta[250] + 2.92226e-09 beta[251]
   + 1.86377e-09 beta[252] - 5.38436e-09 beta[253] - 3.55835e-09 beta[254]
   + 7.45448e-09 beta[255] - 1.43921e-08 beta[256] + 2.47941e-09 beta[257]
   + 4.38059e-09 beta[258] - 4.94075e-09 beta[259] + 2.0766e-09 beta[260]
   + 1.01623e-08 beta[261] - 7.72951e-09 beta[262] - 1.88084e-08 beta[263]
   + 1.21716e-09 beta[264] - 3.96219e-10 beta[265] + 3.94658e-09 beta[266]
   + 1.36551e-09 beta[267] - 1.2594e-08 beta[268] - 6.17787e-09 beta[269]
   + 2.36894e-08 beta[270] + 1.8432e-08 beta[271] + 2.0221e-08 beta[272]
   - 1.66703e-09 beta[273] - 1.3092e-08 beta[274] + 3.77604e-09 beta[275]
   + 1.83109e-08 beta[276] - 3.72528e-09 beta[277] - 3.05326e-08 beta[278]
   - 5.31432e-09 beta[279] + 2.2523e-08 beta[280] + 2.94119e-10 beta[281]
   - 1.38542e-08 beta[282] - 4.91017e-09 beta[283] + 1.06647e-08 beta[284]
   + 1.29172e-08 beta[285] - 6.14931e-10 beta[286] - 1.59966e-08 beta[287]
   <= 2.3904e-05
 R635: 2.89708e-09 beta[0] + 1.14387e-09 beta[1] - 3.30744e-09 beta[2]
   + 7.19721e-10 beta[3] + 5.0729e-10 beta[4] + 5.74561e-11 beta[5]
   - 3.60086e-11 beta[6] - 3.66621e-11 beta[7] - 1.02357e-08 beta[8]
   + 3.20577e-09 beta[9] - 4.62303e-09 beta[10] - 3.61101e-10 beta[11]
   + 3.74183e-10 beta[12] + 1.50912e-10 beta[13] + 5.03505e-11 beta[14]
   + 2.62818e-11 beta[15] + 3.10305e-08 beta[16] + 1.42504e-08 beta[17]
   - 3.82395e-09 beta[18] - 2.23588e-09 beta[19] - 3.31891e-10 beta[20]
   + 3.98304e-11 beta[21] + 3.91545e-11 beta[22] + 1.43627e-11 beta[23]
   + 1.66867e-08 beta[24] + 3.31263e-08 beta[25] + 4.60748e-09 beta[26]
   - 2.21321e-09 beta[27] - 1.21786e-09 beta[28] - 3.74351e-10 beta[29]
   - 9.88503e-11 beta[30] - 2.85935e-11 beta[31] - 2.01161e-07 beta[32]
   + 3.33736e-08 beta[33] + 2.14814e-08 beta[34] + 4.44794e-09 beta[35]
   + 3.26766e-10 beta[36] - 1.32412e-10 beta[37] - 9.62949e-11 beta[38]
   - 4.59089e-11 beta[39] - 3.05142e-07 beta[40] - 4.83916e-08 beta[41]
   + 1.36752e-08 beta[42] + 8.13247e-09 beta[43] + 2.5285e-09 beta[44]
   + 7.488e-10 beta[45] + 2.39412e-10 beta[46] + 7.29841e-11 beta[47]
   - 2.03621e-07 beta[48] - 1.88337e-07 beta[49] - 3.73852e-08 beta[50]
   - 3.78339e-09 beta[51] - 4.10641e-11 beta[52] + 1.32454e-10 beta[53]
   + 1.08319e-10 beta[54] + 9.05169e-11 beta[55] + 8.2033e-08 beta[56]
   - 1.60408e-07 beta[57] - 6.45686e-08 beta[58] - 1.49023e-08 beta[59]
   - 3.23698e-09 beta[60] - 9.40493e-10 beta[61] - 3.66252e-10 beta[62]
   - 1.38612e-10 beta[63] + 1.68159e-06 beta[64] + 2.43876e-07 beta[65]
   - 3.75549e-09 beta[66] - 8.60275e-09 beta[67] - 2.17633e-09 beta[68]
   - 4.42096e-10 beta[69] - 2.04873e-10 beta[70] - 2.10454e-10 beta[71]
   + 3.39807e-06 beta[72] + 8.33657e-07 beta[73] + 1.48891e-07 beta[74]
   + 2.0665e-08 beta[75] + 2.99914e-09 beta[76] + 8.59887e-10 beta[77]
   + 4.49799e-10 beta[78] + 2.46265e-10 beta[79] - 1.7082e-06 beta[80]
   + 3.29964e-07 beta[81] + 1.7045e-07 beta[82] + 4.23531e-08 beta[83]
   + 8.61042e-09 beta[84] + 1.89108e-09 beta[85] + 7.65939e-10 beta[86]
   + 5.8359e-10 beta[87] - 1.21197e-05 beta[88] - 1.93303e-06 beta[89]
   - 2.53706e-07 beta[90] - 2.80547e-08 beta[91] - 3.29005e-09 beta[92]
   - 1.10455e-09 beta[93] - 8.27295e-10 beta[94] - 6.35179e-10 beta[95]
   + 2.13269e-08 beta[96] + 1.09914e-08 beta[97] - 2.56451e-09 beta[98]
   - 6.75507e-09 beta[99] - 4.65177e-10 beta[100] + 1.01829e-09 beta[101]
   + 6.79298e-10 beta[102] + 2.77731e-10 beta[103] + 7.57997e-09 beta[104]
   + 1.46744e-08 beta[105] + 1.41439e-09 beta[106] - 5.96387e-09 beta[107]
   - 1.89034e-09 beta[108] - 7.1837e-11 beta[109] + 2.20598e-10 beta[110]
   + 1.53363e-10 beta[111] - 1.78052e-08 beta[112] + 1.87788e-08 beta[113]
   + 1.02219e-08 beta[114] - 1.53304e-09 beta[115] - 2.43659e-09 beta[116]
   - 1.29497e-09 beta[117] - 5.17308e-10 beta[118] - 1.78466e-10 beta[119]
   - 6.08259e-08 beta[120] + 1.05365e-08 beta[121] + 1.87984e-08 beta[122]
   + 7.75419e-09 beta[123] + 8.98394e-10 beta[124] - 6.09156e-10 beta[125]
   - 5.29327e-10 beta[126] - 2.86523e-10 beta[127] - 1.14624e-07 beta[128]
   - 3.12642e-08 beta[129] + 8.56806e-09 beta[130] + 1.2583e-08 beta[131]
   + 5.58734e-09 beta[132] + 1.86758e-09 beta[133] + 5.7374e-10 beta[134]
   + 1.86934e-10 beta[135] - 1.0427e-07 beta[136] - 9.25528e-08 beta[137]
   - 3.1399e-08 beta[138] - 7.05477e-10 beta[139] + 3.25025e-09 beta[140]
   + 2.06609e-09 beta[141] + 9.84654e-10 beta[142] + 4.52321e-10 beta[143]
   + 9.7048e-08 beta[144] - 7.86468e-08 beta[145] - 6.22985e-08 beta[146]
   - 2.31407e-08 beta[147] - 6.35499e-09 beta[148] - 1.48584e-09 beta[149]
   - 3.44253e-10 beta[150] - 9.93577e-11 beta[151] + 4.86724e-07 beta[152]
   + 9.93643e-08 beta[153] - 1.77899e-08 beta[154] - 2.22874e-08 beta[155]
   - 1.05949e-08 beta[156] - 4.12989e-09 beta[157] - 1.62405e-09 beta[158]
   - 7.58534e-10 beta[159] + 6.73491e-07 beta[160] + 3.33353e-07 beta[161]
   + 1.01415e-07 beta[162] + 1.8614e-08 beta[163] + 1.18418e-09 beta[164]
   - 8.8656e-10 beta[165] - 6.18525e-10 beta[166] - 3.6741e-10 beta[167]
   - 1.19556e-07 beta[168] + 2.38776e-07 beta[169] + 1.54136e-07 beta[170]
   + 6.02507e-08 beta[171] + 2.06344e-08 beta[172] + 7.29294e-09 beta[173]
   + 3.15753e-09 beta[174] + 1.87816e-09 beta[175] - 1.91335e-06 beta[176]
   - 4.49259e-07 beta[177] - 4.69374e-08 beta[178] + 1.36455e-08 beta[179]
   + 1.13429e-08 beta[180] + 5.35979e-09 beta[181] + 2.3158e-09 beta[182]
   + 1.18021e-09 beta[183] - 2.19176e-06 beta[184] - 9.71523e-07 beta[185]
   - 3.34092e-07 beta[186] - 1.03783e-07 beta[187] - 3.40614e-08 beta[188]
   - 1.36263e-08 beta[189] - 7.41912e-09 beta[190] - 5.30087e-09 beta[191]
   - 3.33092e-08 beta[192] + 9.10543e-09 beta[193] + 1.13292e-08 beta[194]
   - 1.48696e-08 beta[195] + 3.08573e-09 beta[196] + 2.30741e-08 beta[197]
   - 2.25488e-08 beta[198] - 3.94428e-08 beta[199] + 2.13317e-08 beta[200]
   - 6.70389e-09 beta[201] - 6.54302e-09 beta[202] + 1.0856e-08 beta[203]
   - 3.95804e-09 beta[204] - 1.66398e-08 beta[205] + 1.84227e-08 beta[206]
   + 2.8181e-08 beta[207] - 1.31553e-09 beta[208] + 2.85786e-09 beta[209]
   - 1.39769e-09 beta[210] - 4.48208e-09 beta[211] + 5.31204e-09 beta[212]
   + 6.52569e-09 beta[213] - 1.146e-08 beta[214] - 1.05889e-08 beta[215]
   - 1.16246e-08 beta[216] + 1.06095e-09 beta[217] + 5.53957e-09 beta[218]
   - 1.90248e-09 beta[219] - 3.36851e-09 beta[220] + 3.37601e-09 beta[221]
   + 1.20637e-09 beta[222] - 6.36261e-09 beta[223] + 9.39422e-09 beta[224]
   - 3.76461e-09 beta[225] - 2.57479e-09 beta[226] + 6.16536e-09 beta[227]
   - 2.72027e-09 beta[228] - 9.69035e-09 beta[229] + 1.02005e-08 beta[230]
   + 1.68808e-08 beta[231] - 4.17657e-09 beta[232] + 4.1401e-09 beta[233]
   - 7.70029e-10 beta[234] - 6.58475e-09 beta[235] + 6.65926e-09 beta[236]
   + 1.00181e-08 beta[237] - 1.5669e-08 beta[238] - 1.7528e-08 beta[239]
   + 3.31418e-09 beta[240] - 1.82269e-09 beta[241] + 4.90282e-10 beta[242]
   + 2.64887e-09 beta[243] - 4.95169e-09 beta[244] - 3.7769e-09 beta[245]
   + 1.20094e-08 beta[246] + 7.84191e-09 beta[247] + 3.95973e-09 beta[248]
   - 1.45242e-09 beta[249] - 1.99991e-09 beta[250] + 2.92226e-09 beta[251]
   + 1.86377e-09 beta[252] - 5.38436e-09 beta[253] - 3.55835e-09 beta[254]
   + 7.45448e-09 beta[255] - 1.43921e-08 beta[256] + 2.47941e-09 beta[257]
   + 4.38059e-09 beta[258] - 4.94075e-09 beta[259] + 2.0766e-09 beta[260]
   + 1.01623e-08 beta[261] - 7.72951e-09 beta[262] - 1.88084e-08 beta[263]
   + 1.21716e-09 beta[264] - 3.96219e-10 beta[265] + 3.94658e-09 beta[266]
   + 1.36551e-09 beta[267] - 1.2594e-08 beta[268] - 6.17787e-09 beta[269]
   + 2.36894e-08 beta[270] + 1.8432e-08 beta[271] + 2.0221e-08 beta[272]
   - 1.66703e-09 beta[273] - 1.3092e-08 beta[274] + 3.77604e-09 beta[275]
   + 1.83109e-08 beta[276] - 3.72528e-09 beta[277] - 3.05326e-08 beta[278]
   - 5.31432e-09 beta[279] + 2.2523e-08 beta[280] + 2.94119e-10 beta[281]
   - 1.38542e-08 beta[282] - 4.91017e-09 beta[283] + 1.06647e-08 beta[284]
   + 1.29172e-08 beta[285] - 6.14931e-10 beta[286] - 1.59966e-08 beta[287]
   >= -2.3904e-05
 R636: - 1.04672e-08 beta[0] + 7.30134e-08 beta[1] + 3.66344e-08 beta[2]
   - 5.17002e-09 beta[3] - 6.95304e-09 beta[4] - 3.02525e-09 beta[5]
   - 9.61347e-10 beta[6] - 2.5066e-10 beta[7] + 1.13982e-07 beta[8]
   + 6.46916e-08 beta[9] + 7.11397e-08 beta[10] + 2.36512e-08 beta[11]
   + 6.04641e-09 beta[12] + 1.37719e-09 beta[13] + 3.0172e-10 beta[14]
   + 7.03018e-11 beta[15] + 5.82289e-07 beta[16] - 2.63506e-07 beta[17]
   - 6.40716e-08 beta[18] - 9.17677e-09 beta[19] - 1.38027e-10 beta[20]
   + 3.6189e-10 beta[21] + 1.02427e-10 beta[22] - 1.42047e-11 beta[23]
   - 1.79658e-06 beta[24] - 1.00095e-07 beta[25] - 7.93543e-08 beta[26]
   - 2.09628e-08 beta[27] - 3.72447e-09 beta[28] - 2.76969e-10 beta[29]
   + 1.52886e-10 beta[30] + 1.25027e-10 beta[31] - 3.05771e-06 beta[32]
   + 5.69201e-07 beta[33] + 1.11023e-07 beta[34] + 1.64151e-08 beta[35]
   + 1.33672e-09 beta[36] - 2.35556e-10 beta[37] - 1.66299e-10 beta[38]
   - 6.38402e-11 beta[39] + 5.92444e-06 beta[40] - 1.93595e-07 beta[41]
   - 1.27996e-08 beta[42] - 5.68891e-09 beta[43] - 4.01072e-09 beta[44]
   - 1.96717e-09 beta[45] - 7.85847e-10 beta[46] - 2.85928e-10 beta[47]
   + 1.18808e-05 beta[48] - 1.97815e-07 beta[49] + 2.98405e-09 beta[50]
   + 2.46289e-08 beta[51] + 1.22473e-08 beta[52] + 4.51288e-09 beta[53]
   + 1.48125e-09 beta[54] + 4.57904e-10 beta[55] - 1.75154e-05 beta[56]
   + 1.00985e-07 beta[57] - 2.6902e-08 beta[58] - 1.5228e-08 beta[59]
   - 3.3236e-09 beta[60] - 3.01032e-10 beta[61] + 1.20893e-10 beta[62]
   + 9.14805e-11 beta[63] - 2.6694e-05 beta[64] - 5.85198e-07 beta[65]
   - 1.63536e-07 beta[66] - 7.8639e-08 beta[67] - 3.02128e-08 beta[68]
   - 1.03435e-08 beta[69] - 3.36027e-09 beta[70] - 1.05176e-09 beta[71]
   + 4.23025e-05 beta[72] + 1.48302e-06 beta[73] + 4.74472e-07 beta[74]
   + 1.52217e-07 beta[75] + 4.35479e-08 beta[76] + 1.20348e-08 beta[77]
   + 3.30407e-09 beta[78] + 8.96396e-10 beta[79] + 3.3865e-05 beta[80]
   - 5.80339e-07 beta[81] - 1.64636e-07 beta[82] + 1.23868e-08 beta[83]
   + 1.78254e-08 beta[84] + 8.50694e-09 beta[85] + 3.42829e-09 beta[86]
   + 1.36863e-09 beta[87] - 7.3883e-05 beta[88] - 3.47293e-06 beta[89]
   - 1.03286e-06 beta[90] - 3.26583e-07 beta[91] - 9.75341e-08 beta[92]
   - 2.91743e-08 beta[93] - 9.08038e-09 beta[94] - 3.12262e-09 beta[95]
   + 4.91557e-08 beta[96] - 1.09626e-08 beta[97] + 4.92605e-09 beta[98]
   + 5.49531e-09 beta[99] + 1.39825e-09 beta[100] + 1.39016e-10 beta[101]
   - 2.54096e-11 beta[102] + 7.75131e-12 beta[103] + 8.88155e-08 beta[104]
   - 1.37412e-08 beta[105] - 5.98581e-10 beta[106] + 2.44268e-09 beta[107]
   + 4.91282e-10 beta[108] - 1.14901e-10 beta[109] - 1.18429e-10 beta[110]
   - 4.55813e-11 beta[111] - 5.68209e-09 beta[112] - 5.54546e-09 beta[113]
   - 5.15777e-09 beta[114] - 4.72162e-10 beta[115] - 2.30531e-10 beta[116]
   - 3.69015e-10 beta[117] - 3.28349e-10 beta[118] - 2.33312e-10 beta[119]
   - 3.09659e-07 beta[120] + 1.12947e-08 beta[121] - 1.62838e-09 beta[122]
   + 1.114e-09 beta[123] + 1.73763e-09 beta[124] + 9.75566e-10 beta[125]
   + 3.62984e-10 beta[126] + 7.19449e-11 beta[127] - 1.3739e-07 beta[128]
   + 1.39713e-10 beta[129] - 6.70013e-09 beta[130] - 2.12177e-09 beta[131]
   + 1.50602e-09 beta[132] + 1.8617e-09 beta[133] + 1.29437e-09 beta[134]
   + 7.67348e-10 beta[135] + 8.19976e-07 beta[136] - 2.1613e-09 beta[137]
   - 1.99142e-08 beta[138] - 1.55597e-08 beta[139] - 7.03475e-09 beta[140]
   - 2.33427e-09 beta[141] - 4.90431e-10 beta[142] + 9.51373e-11 beta[143]
   + 5.71296e-07 beta[144] + 8.06077e-08 beta[145] + 1.78685e-08 beta[146]
   - 8.18013e-09 beta[147] - 1.02858e-08 beta[148] - 6.78909e-09 beta[149]
   - 3.7768e-09 beta[150] - 1.98091e-09 beta[151] - 1.58655e-06 beta[152]
   + 1.14416e-07 beta[153] + 1.04255e-07 beta[154] + 4.37992e-08 beta[155]
   + 1.36419e-08 beta[156] + 2.8233e-09 beta[157] - 2.74702e-10 beta[158]
   - 8.68186e-10 beta[159] - 1.43749e-06 beta[160] - 1.49622e-07 beta[161]
   + 4.90012e-08 beta[162] + 5.89165e-08 beta[163] + 3.63962e-08 beta[164]
   + 1.90108e-08 beta[165] + 9.37169e-09 beta[166] + 4.51032e-09 beta[167]
   + 1.88196e-06 beta[168] - 5.64921e-07 beta[169] - 2.63709e-07 beta[170]
   - 8.09029e-08 beta[171] - 1.8337e-08 beta[172] - 7.04378e-10 beta[173]
   + 3.02402e-09 beta[174] + 3.02564e-09 beta[175] + 2.05765e-06 beta[176]
   - 1.82179e-07 beta[177] - 3.05959e-07 beta[178] - 1.81447e-07 beta[179]
   - 9.11414e-08 beta[180] - 4.3776e-08 beta[181] - 2.08595e-08 beta[182]
   - 9.92489e-09 beta[183] - 6.33106e-07 beta[184] + 1.34733e-06 beta[185]
   + 4.56823e-07 beta[186] + 1.19449e-07 beta[187] + 2.19264e-08 beta[188]
   - 2.83222e-09 beta[189] - 7.30771e-09 beta[190] - 6.67288e-09 beta[191]
   + 2.44863e-08 beta[192] - 5.69827e-09 beta[193] - 6.12391e-09 beta[194]
   + 1.14723e-08 beta[195] - 6.33336e-09 beta[196] - 2.19838e-08 beta[197]
   + 1.90629e-08 beta[198] + 4.05931e-08 beta[199] - 2.38222e-08 beta[200]
   + 3.9463e-09 beta[201] + 6.45475e-09 beta[202] - 8.08634e-09 beta[203]
   + 4.94176e-09 beta[204] + 1.57504e-08 beta[205] - 1.68394e-08 beta[206]
   - 2.96064e-08 beta[207] + 4.15844e-08 beta[208] + 3.92973e-09 beta[209]
   - 1.73744e-08 beta[210] - 5.06435e-09 beta[211] + 6.79024e-09 beta[212]
   + 4.15093e-09 beta[213] + 3.08298e-09 beta[214] + 2.94608e-11 beta[215]
   + 1.85746e-07 beta[216] - 9.85503e-09 beta[217] - 9.32541e-08 beta[218]
   + 1.54268e-08 beta[219] + 7.08922e-08 beta[220] - 2.08546e-08 beta[221]
   - 6.15085e-08 beta[222] + 2.62591e-08 beta[223] - 2.68739e-07 beta[224]
   + 4.61887e-09 beta[225] + 1.3152e-07 beta[226] - 8.67675e-09 beta[227]
   - 9.39068e-08 beta[228] + 1.52218e-08 beta[229] + 7.35439e-08 beta[230]
   - 2.47821e-08 beta[231] - 5.00343e-07 beta[232] + 2.22892e-09 beta[233]
   + 2.55653e-07 beta[234] - 1.34519e-09 beta[235] - 2.01358e-07 beta[236]
   - 3.54401e-09 beta[237] + 1.79329e-07 beta[238] + 1.30722e-08 beta[239]
   + 8.88955e-07 beta[240] - 7.27796e-09 beta[241] - 4.4981e-07 beta[242]
   + 1.00998e-08 beta[243] + 3.47465e-07 beta[244] - 9.68398e-09 beta[245]
   - 3.03313e-07 beta[246] + 5.34165e-09 beta[247] + 7.51132e-07 beta[248]
   + 2.43956e-08 beta[249] - 3.7494e-07 beta[250] - 3.84968e-08 beta[251]
   + 2.78284e-07 beta[252] + 5.09786e-08 beta[253] - 2.25145e-07 beta[254]
   - 6.23311e-08 beta[255] - 2.01857e-06 beta[256] - 2.73346e-08 beta[257]
   + 1.01634e-06 beta[258] + 4.56227e-08 beta[259] - 7.72382e-07 beta[260]
   - 6.62023e-08 beta[261] + 6.52728e-07 beta[262] + 9.07417e-08 beta[263]
   - 4.76142e-07 beta[264] - 3.90923e-08 beta[265] + 2.2533e-07 beta[266]
   + 5.44687e-08 beta[267] - 1.47545e-07 beta[268] - 5.88347e-08 beta[269]
   + 9.66265e-08 beta[270] + 5.32697e-08 beta[271] + 3.40805e-06 beta[272]
   + 1.08233e-07 beta[273] - 1.69684e-06 beta[274] - 1.63485e-07 beta[275]
   + 1.25802e-06 beta[276] + 2.05462e-07 beta[277] - 1.02544e-06 beta[278]
   - 2.39369e-07 beta[279] - 7.59715e-07 beta[280] + 8.19462e-10 beta[281]
   + 3.92358e-07 beta[282] + 6.00743e-09 beta[283] - 3.12116e-07 beta[284]
   - 2.13479e-08 beta[285] + 2.7624e-07 beta[286] + 4.54387e-08 beta[287]
   <= 2.3904e-05
 R637: - 1.04672e-08 beta[0] + 7.30134e-08 beta[1] + 3.66344e-08 beta[2]
   - 5.17002e-09 beta[3] - 6.95304e-09 beta[4] - 3.02525e-09 beta[5]
   - 9.61347e-10 beta[6] - 2.5066e-10 beta[7] + 1.13982e-07 beta[8]
   + 6.46916e-08 beta[9] + 7.11397e-08 beta[10] + 2.36512e-08 beta[11]
   + 6.04641e-09 beta[12] + 1.37719e-09 beta[13] + 3.0172e-10 beta[14]
   + 7.03018e-11 beta[15] + 5.82289e-07 beta[16] - 2.63506e-07 beta[17]
   - 6.40716e-08 beta[18] - 9.17677e-09 beta[19] - 1.38027e-10 beta[20]
   + 3.6189e-10 beta[21] + 1.02427e-10 beta[22] - 1.42047e-11 beta[23]
   - 1.79658e-06 beta[24] - 1.00095e-07 beta[25] - 7.93543e-08 beta[26]
   - 2.09628e-08 beta[27] - 3.72447e-09 beta[28] - 2.76969e-10 beta[29]
   + 1.52886e-10 beta[30] + 1.25027e-10 beta[31] - 3.05771e-06 beta[32]
   + 5.69201e-07 beta[33] + 1.11023e-07 beta[34] + 1.64151e-08 beta[35]
   + 1.33672e-09 beta[36] - 2.35556e-10 beta[37] - 1.66299e-10 beta[38]
   - 6.38402e-11 beta[39] + 5.92444e-06 beta[40] - 1.93595e-07 beta[41]
   - 1.27996e-08 beta[42] - 5.68891e-09 beta[43] - 4.01072e-09 beta[44]
   - 1.96717e-09 beta[45] - 7.85847e-10 beta[46] - 2.85928e-10 beta[47]
   + 1.18808e-05 beta[48] - 1.97815e-07 beta[49] + 2.98405e-09 beta[50]
   + 2.46289e-08 beta[51] + 1.22473e-08 beta[52] + 4.51288e-09 beta[53]
   + 1.48125e-09 beta[54] + 4.57904e-10 beta[55] - 1.75154e-05 beta[56]
   + 1.00985e-07 beta[57] - 2.6902e-08 beta[58] - 1.5228e-08 beta[59]
   - 3.3236e-09 beta[60] - 3.01032e-10 beta[61] + 1.20893e-10 beta[62]
   + 9.14805e-11 beta[63] - 2.6694e-05 beta[64] - 5.85198e-07 beta[65]
   - 1.63536e-07 beta[66] - 7.8639e-08 beta[67] - 3.02128e-08 beta[68]
   - 1.03435e-08 beta[69] - 3.36027e-09 beta[70] - 1.05176e-09 beta[71]
   + 4.23025e-05 beta[72] + 1.48302e-06 beta[73] + 4.74472e-07 beta[74]
   + 1.52217e-07 beta[75] + 4.35479e-08 beta[76] + 1.20348e-08 beta[77]
   + 3.30407e-09 beta[78] + 8.96396e-10 beta[79] + 3.3865e-05 beta[80]
   - 5.80339e-07 beta[81] - 1.64636e-07 beta[82] + 1.23868e-08 beta[83]
   + 1.78254e-08 beta[84] + 8.50694e-09 beta[85] + 3.42829e-09 beta[86]
   + 1.36863e-09 beta[87] - 7.3883e-05 beta[88] - 3.47293e-06 beta[89]
   - 1.03286e-06 beta[90] - 3.26583e-07 beta[91] - 9.75341e-08 beta[92]
   - 2.91743e-08 beta[93] - 9.08038e-09 beta[94] - 3.12262e-09 beta[95]
   + 4.91557e-08 beta[96] - 1.09626e-08 beta[97] + 4.92605e-09 beta[98]
   + 5.49531e-09 beta[99] + 1.39825e-09 beta[100] + 1.39016e-10 beta[101]
   - 2.54096e-11 beta[102] + 7.75131e-12 beta[103] + 8.88155e-08 beta[104]
   - 1.37412e-08 beta[105] - 5.98581e-10 beta[106] + 2.44268e-09 beta[107]
   + 4.91282e-10 beta[108] - 1.14901e-10 beta[109] - 1.18429e-10 beta[110]
   - 4.55813e-11 beta[111] - 5.68209e-09 beta[112] - 5.54546e-09 beta[113]
   - 5.15777e-09 beta[114] - 4.72162e-10 beta[115] - 2.30531e-10 beta[116]
   - 3.69015e-10 beta[117] - 3.28349e-10 beta[118] - 2.33312e-10 beta[119]
   - 3.09659e-07 beta[120] + 1.12947e-08 beta[121] - 1.62838e-09 beta[122]
   + 1.114e-09 beta[123] + 1.73763e-09 beta[124] + 9.75566e-10 beta[125]
   + 3.62984e-10 beta[126] + 7.19449e-11 beta[127] - 1.3739e-07 beta[128]
   + 1.39713e-10 beta[129] - 6.70013e-09 beta[130] - 2.12177e-09 beta[131]
   + 1.50602e-09 beta[132] + 1.8617e-09 beta[133] + 1.29437e-09 beta[134]
   + 7.67348e-10 beta[135] + 8.19976e-07 beta[136] - 2.1613e-09 beta[137]
   - 1.99142e-08 beta[138] - 1.55597e-08 beta[139] - 7.03475e-09 beta[140]
   - 2.33427e-09 beta[141] - 4.90431e-10 beta[142] + 9.51373e-11 beta[143]
   + 5.71296e-07 beta[144] + 8.06077e-08 beta[145] + 1.78685e-08 beta[146]
   - 8.18013e-09 beta[147] - 1.02858e-08 beta[148] - 6.78909e-09 beta[149]
   - 3.7768e-09 beta[150] - 1.98091e-09 beta[151] - 1.58655e-06 beta[152]
   + 1.14416e-07 beta[153] + 1.04255e-07 beta[154] + 4.37992e-08 beta[155]
   + 1.36419e-08 beta[156] + 2.8233e-09 beta[157] - 2.74702e-10 beta[158]
   - 8.68186e-10 beta[159] - 1.43749e-06 beta[160] - 1.49622e-07 beta[161]
   + 4.90012e-08 beta[162] + 5.89165e-08 beta[163] + 3.63962e-08 beta[164]
   + 1.90108e-08 beta[165] + 9.37169e-09 beta[166] + 4.51032e-09 beta[167]
   + 1.88196e-06 beta[168] - 5.64921e-07 beta[169] - 2.63709e-07 beta[170]
   - 8.09029e-08 beta[171] - 1.8337e-08 beta[172] - 7.04378e-10 beta[173]
   + 3.02402e-09 beta[174] + 3.02564e-09 beta[175] + 2.05765e-06 beta[176]
   - 1.82179e-07 beta[177] - 3.05959e-07 beta[178] - 1.81447e-07 beta[179]
   - 9.11414e-08 beta[180] - 4.3776e-08 beta[181] - 2.08595e-08 beta[182]
   - 9.92489e-09 beta[183] - 6.33106e-07 beta[184] + 1.34733e-06 beta[185]
   + 4.56823e-07 beta[186] + 1.19449e-07 beta[187] + 2.19264e-08 beta[188]
   - 2.83222e-09 beta[189] - 7.30771e-09 beta[190] - 6.67288e-09 beta[191]
   + 2.44863e-08 beta[192] - 5.69827e-09 beta[193] - 6.12391e-09 beta[194]
   + 1.14723e-08 beta[195] - 6.33336e-09 beta[196] - 2.19838e-08 beta[197]
   + 1.90629e-08 beta[198] + 4.05931e-08 beta[199] - 2.38222e-08 beta[200]
   + 3.9463e-09 beta[201] + 6.45475e-09 beta[202] - 8.08634e-09 beta[203]
   + 4.94176e-09 beta[204] + 1.57504e-08 beta[205] - 1.68394e-08 beta[206]
   - 2.96064e-08 beta[207] + 4.15844e-08 beta[208] + 3.92973e-09 beta[209]
   - 1.73744e-08 beta[210] - 5.06435e-09 beta[211] + 6.79024e-09 beta[212]
   + 4.15093e-09 beta[213] + 3.08298e-09 beta[214] + 2.94608e-11 beta[215]
   + 1.85746e-07 beta[216] - 9.85503e-09 beta[217] - 9.32541e-08 beta[218]
   + 1.54268e-08 beta[219] + 7.08922e-08 beta[220] - 2.08546e-08 beta[221]
   - 6.15085e-08 beta[222] + 2.62591e-08 beta[223] - 2.68739e-07 beta[224]
   + 4.61887e-09 beta[225] + 1.3152e-07 beta[226] - 8.67675e-09 beta[227]
   - 9.39068e-08 beta[228] + 1.52218e-08 beta[229] + 7.35439e-08 beta[230]
   - 2.47821e-08 beta[231] - 5.00343e-07 beta[232] + 2.22892e-09 beta[233]
   + 2.55653e-07 beta[234] - 1.34519e-09 beta[235] - 2.01358e-07 beta[236]
   - 3.54401e-09 beta[237] + 1.79329e-07 beta[238] + 1.30722e-08 beta[239]
   + 8.88955e-07 beta[240] - 7.27796e-09 beta[241] - 4.4981e-07 beta[242]
   + 1.00998e-08 beta[243] + 3.47465e-07 beta[244] - 9.68398e-09 beta[245]
   - 3.03313e-07 beta[246] + 5.34165e-09 beta[247] + 7.51132e-07 beta[248]
   + 2.43956e-08 beta[249] - 3.7494e-07 beta[250] - 3.84968e-08 beta[251]
   + 2.78284e-07 beta[252] + 5.09786e-08 beta[253] - 2.25145e-07 beta[254]
   - 6.23311e-08 beta[255] - 2.01857e-06 beta[256] - 2.73346e-08 beta[257]
   + 1.01634e-06 beta[258] + 4.56227e-08 beta[259] - 7.72382e-07 beta[260]
   - 6.62023e-08 beta[261] + 6.52728e-07 beta[262] + 9.07417e-08 beta[263]
   - 4.76142e-07 beta[264] - 3.90923e-08 beta[265] + 2.2533e-07 beta[266]
   + 5.44687e-08 beta[267] - 1.47545e-07 beta[268] - 5.88347e-08 beta[269]
   + 9.66265e-08 beta[270] + 5.32697e-08 beta[271] + 3.40805e-06 beta[272]
   + 1.08233e-07 beta[273] - 1.69684e-06 beta[274] - 1.63485e-07 beta[275]
   + 1.25802e-06 beta[276] + 2.05462e-07 beta[277] - 1.02544e-06 beta[278]
   - 2.39369e-07 beta[279] - 7.59715e-07 beta[280] + 8.19462e-10 beta[281]
   + 3.92358e-07 beta[282] + 6.00743e-09 beta[283] - 3.12116e-07 beta[284]
   - 2.13479e-08 beta[285] + 2.7624e-07 beta[286] + 4.54387e-08 beta[287]
   >= -2.3904e-05
 R638: 1.98527e-08 beta[0] + 3.58224e-07 beta[1] - 1.93865e-08 beta[2]
   - 9.75091e-08 beta[3] - 5.79041e-08 beta[4] - 2.70189e-08 beta[5]
   - 1.1512e-08 beta[6] - 4.5363e-09 beta[7] + 2.98706e-07 beta[8]
   + 7.05631e-07 beta[9] + 4.53875e-07 beta[10] + 1.92855e-07 beta[11]
   + 7.89866e-08 beta[12] + 3.12414e-08 beta[13] + 1.19022e-08 beta[14]
   + 4.4657e-09 beta[15] - 7.92082e-07 beta[16] - 6.46995e-07 beta[17]
   - 2.21136e-07 beta[18] - 8.195e-08 beta[19] - 3.36219e-08 beta[20]
   - 1.35598e-08 beta[21] - 5.34043e-09 beta[22] - 2.10289e-09 beta[23]
   - 7.18958e-06 beta[24] - 2.13237e-06 beta[25] - 8.58369e-07 beta[26]
   - 2.91652e-07 beta[27] - 1.02738e-07 beta[28] - 3.70593e-08 beta[29]
   - 1.34035e-08 beta[30] - 4.8928e-09 beta[31] + 5.37652e-06 beta[32]
   + 4.14463e-06 beta[33] + 1.46877e-06 beta[34] + 5.73614e-07 beta[35]
   + 2.19657e-07 beta[36] + 8.13276e-08 beta[37] + 2.94562e-08 beta[38]
   + 1.04891e-08 beta[39] + 5.20086e-06 beta[40] - 4.84935e-07 beta[41]
   - 5.09285e-07 beta[42] - 2.34657e-07 beta[43] - 8.13462e-08 beta[44]
   - 2.45064e-08 beta[45] - 6.53808e-09 beta[46] - 1.39479e-09 beta[47]
   - 5.17928e-06 beta[48] - 6.77641e-06 beta[49] - 2.56851e-06 beta[50]
   - 1.00976e-06 beta[51] - 3.8113e-07 beta[52] - 1.39028e-07 beta[53]
   - 4.98501e-08 beta[54] - 1.76794e-08 beta[55] + 2.86724e-05 beta[56]
   + 1.36911e-05 beta[57] + 5.10724e-06 beta[58] + 1.69959e-06 beta[59]
   + 5.36011e-07 beta[60] + 1.64567e-07 beta[61] + 4.93861e-08 beta[62]
   + 1.42421e-08 beta[63] - 4.81364e-05 beta[64] - 3.52801e-06 beta[65]
   + 1.43403e-07 beta[66] + 4.08129e-07 beta[67] + 2.36203e-07 beta[68]
   + 1.09528e-07 beta[69] + 4.77235e-08 beta[70] + 2.06709e-08 beta[71]
   - 7.48888e-05 beta[72] - 2.86514e-05 beta[73] - 9.53085e-06 beta[74]
   - 3.00835e-06 beta[75] - 9.35365e-07 beta[76] - 2.91871e-07 beta[77]
   - 9.14932e-08 beta[78] - 2.8177e-08 beta[79] + 0.000161433 beta[80]
   + 2.63548e-05 beta[81] + 5.56746e-06 beta[82] + 1.09164e-06 beta[83]
   + 1.47827e-07 beta[84] - 2.47663e-08 beta[85] - 3.99582e-08 beta[86]
   - 2.98686e-08 beta[87] + 7.55921e-05 beta[88] + 2.74065e-05 beta[89]
   + 8.99069e-06 beta[90] + 2.94854e-06 beta[91] + 9.94696e-07 beta[92]
   + 3.5269e-07 beta[93] + 1.32189e-07 beta[94] + 5.20053e-08 beta[95]
   - 4.90784e-07 beta[96] + 3.21907e-07 beta[97] - 5.40954e-08 beta[98]
   - 3.12885e-09 beta[99] + 1.93653e-08 beta[100] + 1.44146e-08 beta[101]
   + 4.38076e-09 beta[102] - 2.23896e-09 beta[103] - 4.89324e-07 beta[104]
   + 3.00084e-07 beta[105] - 6.67147e-08 beta[106] - 1.93524e-08 beta[107]
   + 1.21501e-08 beta[108] + 1.47904e-08 beta[109] + 8.38331e-09 beta[110]
   + 2.37104e-09 beta[111] - 7.89583e-07 beta[112] + 2.79691e-07 beta[113]
   - 8.08176e-08 beta[114] - 5.2939e-08 beta[115] - 1.09267e-08 beta[116]
   + 6.07379e-09 beta[117] + 9.0747e-09 beta[118] + 7.09732e-09 beta[119]
   - 1.29153e-06 beta[120] + 3.49693e-07 beta[121] - 9.86363e-09 beta[122]
   - 5.27193e-08 beta[123] - 2.91161e-08 beta[124] - 7.41774e-09 beta[125]
   + 4.04464e-09 beta[126] + 8.01519e-09 beta[127] - 1.18972e-06 beta[128]
   + 3.47357e-07 beta[129] + 9.28e-08 beta[130] - 3.38562e-08 beta[131]
   - 5.43107e-08 beta[132] - 4.07614e-08 beta[133] - 2.3328e-08 beta[134]
   - 1.05587e-08 beta[135] + 2.99433e-08 beta[136] + 1.51181e-07 beta[137]
   + 1.84302e-07 beta[138] + 3.43868e-08 beta[139] - 3.82995e-08 beta[140]
   - 5.34961e-08 beta[141] - 4.58875e-08 beta[142] - 3.30258e-08 beta[143]
   + 9.24625e-07 beta[144] + 1.1155e-07 beta[145] + 4.52403e-07 beta[146]
   + 3.17402e-07 beta[147] + 1.69241e-07 beta[148] + 7.84148e-08 beta[149]
   + 3.10959e-08 beta[150] + 8.93263e-09 beta[151] - 1.78561e-06 beta[152]
   - 6.56001e-07 beta[153] + 1.95913e-07 beta[154] + 3.25869e-07 beta[155]
   + 2.68409e-07 beta[156] + 1.86216e-07 beta[157] + 1.19728e-07 beta[158]
   + 7.38357e-08 beta[159] - 5.16748e-06 beta[160] - 2.70351e-06 beta[161]
   - 1.26574e-06 beta[162] - 5.6852e-07 beta[163] - 2.40277e-07 beta[164]
   - 9.42021e-08 beta[165] - 3.24496e-08 beta[166] - 7.98226e-09 beta[167]
   + 1.79897e-06 beta[168] - 1.77473e-06 beta[169] - 1.47269e-06 beta[170]
   - 9.81585e-07 beta[171] - 6.12691e-07 beta[172] - 3.76832e-07 beta[173]
   - 2.3354e-07 beta[174] - 1.47725e-07 beta[175] + 1.40885e-05 beta[176]
   + 3.74387e-06 beta[177] + 1.38896e-06 beta[178] + 5.6913e-07 beta[179]
   + 2.42717e-07 beta[180] + 1.06659e-07 beta[181] + 4.77854e-08 beta[182]
   + 2.09463e-08 beta[183] + 7.99987e-06 beta[184] + 4.97778e-06 beta[185]
   + 2.73025e-06 beta[186] + 1.61253e-06 beta[187] + 9.92537e-07 beta[188]
   + 6.35882e-07 beta[189] + 4.2424e-07 beta[190] + 2.94198e-07 beta[191]
   + 8.06067e-08 beta[192] + 6.6849e-08 beta[193] - 6.08653e-08 beta[194]
   - 9.44407e-08 beta[195] + 7.91791e-08 beta[196] + 7.76984e-08 beta[197]
   - 1.51926e-07 beta[198] - 3.1792e-09 beta[199] - 9.51387e-08 beta[200]
   - 6.58833e-08 beta[201] + 6.67672e-08 beta[202] + 9.44639e-08 beta[203]
   - 8.30137e-08 beta[204] - 8.6753e-08 beta[205] + 1.4993e-07 beta[206]
   + 3.44578e-08 beta[207] - 3.81418e-08 beta[208] + 7.38054e-08 beta[209]
   + 2.95279e-09 beta[210] - 1.08185e-07 beta[211] + 2.80437e-08 beta[212]
   + 1.17186e-07 beta[213] - 9.274e-08 beta[214] - 1.00638e-07 beta[215]
   + 4.27178e-07 beta[216] - 7.5802e-08 beta[217] - 2.02249e-07 beta[218]
   + 1.12489e-07 beta[219] + 1.28066e-07 beta[220] - 1.34291e-07 beta[221]
   - 5.69604e-08 beta[222] + 1.46702e-07 beta[223] - 4.50725e-07 beta[224]
   + 4.6248e-08 beta[225] + 2.18973e-07 beta[226] - 6.97755e-08 beta[227]
   - 1.50897e-07 beta[228] + 8.93196e-08 beta[229] + 1.0432e-07 beta[230]
   - 1.08256e-07 beta[231] - 6.82686e-07 beta[232] + 9.50866e-09 beta[233]
   + 3.45657e-07 beta[234] - 9.91188e-09 beta[235] - 2.63081e-07 beta[236]
   + 1.94376e-09 beta[237] + 2.09578e-07 beta[238] + 8.3353e-09 beta[239]
   + 1.77031e-06 beta[240] - 7.59879e-08 beta[241] - 8.91316e-07 beta[242]
   + 1.04197e-07 beta[243] + 6.68211e-07 beta[244] - 1.11132e-07 beta[245]
   - 5.24607e-07 beta[246] + 1.14008e-07 beta[247] - 3.90152e-07 beta[248]
   + 1.59837e-07 beta[249] + 1.95219e-07 beta[250] - 2.28888e-07 beta[251]
   - 1.32542e-07 beta[252] + 2.66447e-07 beta[253] + 5.46151e-08 beta[254]
   - 2.96819e-07 beta[255] - 3.0528e-06 beta[256] - 1.35022e-07 beta[257]
   + 1.54969e-06 beta[258] + 1.99491e-07 beta[259] - 1.21169e-06 beta[260]
   - 2.43972e-07 beta[261] + 1.09987e-06 beta[262] + 2.8437e-07 beta[263]
   + 2.10384e-06 beta[264] - 1.56544e-08 beta[265] - 1.09863e-06 beta[266]
   + 1.39253e-08 beta[267] + 9.02322e-07 beta[268] - 2.14693e-09 beta[269]
   - 8.54753e-07 beta[270] - 1.2877e-08 beta[271] + 4.76171e-07 beta[272]
   + 2.15814e-07 beta[273] - 1.93323e-07 beta[274] - 3.07136e-07 beta[275]
   + 8.06594e-08 beta[276] + 3.5988e-07 beta[277] - 4.26263e-09 beta[278]
   - 4.05396e-07 beta[279] - 3.94296e-06 beta[280] - 3.18113e-07 beta[281]
   + 1.96367e-06 beta[282] + 4.6819e-07 beta[283] - 1.47422e-06 beta[284]
   - 5.8005e-07 beta[285] + 1.25322e-06 beta[286] + 6.96622e-07 beta[287]
   <= 2.3904e-05
 R639: 1.98527e-08 beta[0] + 3.58224e-07 beta[1] - 1.93865e-08 beta[2]
   - 9.75091e-08 beta[3] - 5.79041e-08 beta[4] - 2.70189e-08 beta[5]
   - 1.1512e-08 beta[6] - 4.5363e-09 beta[7] + 2.98706e-07 beta[8]
   + 7.05631e-07 beta[9] + 4.53875e-07 beta[10] + 1.92855e-07 beta[11]
   + 7.89866e-08 beta[12] + 3.12414e-08 beta[13] + 1.19022e-08 beta[14]
   + 4.4657e-09 beta[15] - 7.92082e-07 beta[16] - 6.46995e-07 beta[17]
   - 2.21136e-07 beta[18] - 8.195e-08 beta[19] - 3.36219e-08 beta[20]
   - 1.35598e-08 beta[21] - 5.34043e-09 beta[22] - 2.10289e-09 beta[23]
   - 7.18958e-06 beta[24] - 2.13237e-06 beta[25] - 8.58369e-07 beta[26]
   - 2.91652e-07 beta[27] - 1.02738e-07 beta[28] - 3.70593e-08 beta[29]
   - 1.34035e-08 beta[30] - 4.8928e-09 beta[31] + 5.37652e-06 beta[32]
   + 4.14463e-06 beta[33] + 1.46877e-06 beta[34] + 5.73614e-07 beta[35]
   + 2.19657e-07 beta[36] + 8.13276e-08 beta[37] + 2.94562e-08 beta[38]
   + 1.04891e-08 beta[39] + 5.20086e-06 beta[40] - 4.84935e-07 beta[41]
   - 5.09285e-07 beta[42] - 2.34657e-07 beta[43] - 8.13462e-08 beta[44]
   - 2.45064e-08 beta[45] - 6.53808e-09 beta[46] - 1.39479e-09 beta[47]
   - 5.17928e-06 beta[48] - 6.77641e-06 beta[49] - 2.56851e-06 beta[50]
   - 1.00976e-06 beta[51] - 3.8113e-07 beta[52] - 1.39028e-07 beta[53]
   - 4.98501e-08 beta[54] - 1.76794e-08 beta[55] + 2.86724e-05 beta[56]
   + 1.36911e-05 beta[57] + 5.10724e-06 beta[58] + 1.69959e-06 beta[59]
   + 5.36011e-07 beta[60] + 1.64567e-07 beta[61] + 4.93861e-08 beta[62]
   + 1.42421e-08 beta[63] - 4.81364e-05 beta[64] - 3.52801e-06 beta[65]
   + 1.43403e-07 beta[66] + 4.08129e-07 beta[67] + 2.36203e-07 beta[68]
   + 1.09528e-07 beta[69] + 4.77235e-08 beta[70] + 2.06709e-08 beta[71]
   - 7.48888e-05 beta[72] - 2.86514e-05 beta[73] - 9.53085e-06 beta[74]
   - 3.00835e-06 beta[75] - 9.35365e-07 beta[76] - 2.91871e-07 beta[77]
   - 9.14932e-08 beta[78] - 2.8177e-08 beta[79] + 0.000161433 beta[80]
   + 2.63548e-05 beta[81] + 5.56746e-06 beta[82] + 1.09164e-06 beta[83]
   + 1.47827e-07 beta[84] - 2.47663e-08 beta[85] - 3.99582e-08 beta[86]
   - 2.98686e-08 beta[87] + 7.55921e-05 beta[88] + 2.74065e-05 beta[89]
   + 8.99069e-06 beta[90] + 2.94854e-06 beta[91] + 9.94696e-07 beta[92]
   + 3.5269e-07 beta[93] + 1.32189e-07 beta[94] + 5.20053e-08 beta[95]
   - 4.90784e-07 beta[96] + 3.21907e-07 beta[97] - 5.40954e-08 beta[98]
   - 3.12885e-09 beta[99] + 1.93653e-08 beta[100] + 1.44146e-08 beta[101]
   + 4.38076e-09 beta[102] - 2.23896e-09 beta[103] - 4.89324e-07 beta[104]
   + 3.00084e-07 beta[105] - 6.67147e-08 beta[106] - 1.93524e-08 beta[107]
   + 1.21501e-08 beta[108] + 1.47904e-08 beta[109] + 8.38331e-09 beta[110]
   + 2.37104e-09 beta[111] - 7.89583e-07 beta[112] + 2.79691e-07 beta[113]
   - 8.08176e-08 beta[114] - 5.2939e-08 beta[115] - 1.09267e-08 beta[116]
   + 6.07379e-09 beta[117] + 9.0747e-09 beta[118] + 7.09732e-09 beta[119]
   - 1.29153e-06 beta[120] + 3.49693e-07 beta[121] - 9.86363e-09 beta[122]
   - 5.27193e-08 beta[123] - 2.91161e-08 beta[124] - 7.41774e-09 beta[125]
   + 4.04464e-09 beta[126] + 8.01519e-09 beta[127] - 1.18972e-06 beta[128]
   + 3.47357e-07 beta[129] + 9.28e-08 beta[130] - 3.38562e-08 beta[131]
   - 5.43107e-08 beta[132] - 4.07614e-08 beta[133] - 2.3328e-08 beta[134]
   - 1.05587e-08 beta[135] + 2.99433e-08 beta[136] + 1.51181e-07 beta[137]
   + 1.84302e-07 beta[138] + 3.43868e-08 beta[139] - 3.82995e-08 beta[140]
   - 5.34961e-08 beta[141] - 4.58875e-08 beta[142] - 3.30258e-08 beta[143]
   + 9.24625e-07 beta[144] + 1.1155e-07 beta[145] + 4.52403e-07 beta[146]
   + 3.17402e-07 beta[147] + 1.69241e-07 beta[148] + 7.84148e-08 beta[149]
   + 3.10959e-08 beta[150] + 8.93263e-09 beta[151] - 1.78561e-06 beta[152]
   - 6.56001e-07 beta[153] + 1.95913e-07 beta[154] + 3.25869e-07 beta[155]
   + 2.68409e-07 beta[156] + 1.86216e-07 beta[157] + 1.19728e-07 beta[158]
   + 7.38357e-08 beta[159] - 5.16748e-06 beta[160] - 2.70351e-06 beta[161]
   - 1.26574e-06 beta[162] - 5.6852e-07 beta[163] - 2.40277e-07 beta[164]
   - 9.42021e-08 beta[165] - 3.24496e-08 beta[166] - 7.98226e-09 beta[167]
   + 1.79897e-06 beta[168] - 1.77473e-06 beta[169] - 1.47269e-06 beta[170]
   - 9.81585e-07 beta[171] - 6.12691e-07 beta[172] - 3.76832e-07 beta[173]
   - 2.3354e-07 beta[174] - 1.47725e-07 beta[175] + 1.40885e-05 beta[176]
   + 3.74387e-06 beta[177] + 1.38896e-06 beta[178] + 5.6913e-07 beta[179]
   + 2.42717e-07 beta[180] + 1.06659e-07 beta[181] + 4.77854e-08 beta[182]
   + 2.09463e-08 beta[183] + 7.99987e-06 beta[184] + 4.97778e-06 beta[185]
   + 2.73025e-06 beta[186] + 1.61253e-06 beta[187] + 9.92537e-07 beta[188]
   + 6.35882e-07 beta[189] + 4.2424e-07 beta[190] + 2.94198e-07 beta[191]
   + 8.06067e-08 beta[192] + 6.6849e-08 beta[193] - 6.08653e-08 beta[194]
   - 9.44407e-08 beta[195] + 7.91791e-08 beta[196] + 7.76984e-08 beta[197]
   - 1.51926e-07 beta[198] - 3.1792e-09 beta[199] - 9.51387e-08 beta[200]
   - 6.58833e-08 beta[201] + 6.67672e-08 beta[202] + 9.44639e-08 beta[203]
   - 8.30137e-08 beta[204] - 8.6753e-08 beta[205] + 1.4993e-07 beta[206]
   + 3.44578e-08 beta[207] - 3.81418e-08 beta[208] + 7.38054e-08 beta[209]
   + 2.95279e-09 beta[210] - 1.08185e-07 beta[211] + 2.80437e-08 beta[212]
   + 1.17186e-07 beta[213] - 9.274e-08 beta[214] - 1.00638e-07 beta[215]
   + 4.27178e-07 beta[216] - 7.5802e-08 beta[217] - 2.02249e-07 beta[218]
   + 1.12489e-07 beta[219] + 1.28066e-07 beta[220] - 1.34291e-07 beta[221]
   - 5.69604e-08 beta[222] + 1.46702e-07 beta[223] - 4.50725e-07 beta[224]
   + 4.6248e-08 beta[225] + 2.18973e-07 beta[226] - 6.97755e-08 beta[227]
   - 1.50897e-07 beta[228] + 8.93196e-08 beta[229] + 1.0432e-07 beta[230]
   - 1.08256e-07 beta[231] - 6.82686e-07 beta[232] + 9.50866e-09 beta[233]
   + 3.45657e-07 beta[234] - 9.91188e-09 beta[235] - 2.63081e-07 beta[236]
   + 1.94376e-09 beta[237] + 2.09578e-07 beta[238] + 8.3353e-09 beta[239]
   + 1.77031e-06 beta[240] - 7.59879e-08 beta[241] - 8.91316e-07 beta[242]
   + 1.04197e-07 beta[243] + 6.68211e-07 beta[244] - 1.11132e-07 beta[245]
   - 5.24607e-07 beta[246] + 1.14008e-07 beta[247] - 3.90152e-07 beta[248]
   + 1.59837e-07 beta[249] + 1.95219e-07 beta[250] - 2.28888e-07 beta[251]
   - 1.32542e-07 beta[252] + 2.66447e-07 beta[253] + 5.46151e-08 beta[254]
   - 2.96819e-07 beta[255] - 3.0528e-06 beta[256] - 1.35022e-07 beta[257]
   + 1.54969e-06 beta[258] + 1.99491e-07 beta[259] - 1.21169e-06 beta[260]
   - 2.43972e-07 beta[261] + 1.09987e-06 beta[262] + 2.8437e-07 beta[263]
   + 2.10384e-06 beta[264] - 1.56544e-08 beta[265] - 1.09863e-06 beta[266]
   + 1.39253e-08 beta[267] + 9.02322e-07 beta[268] - 2.14693e-09 beta[269]
   - 8.54753e-07 beta[270] - 1.2877e-08 beta[271] + 4.76171e-07 beta[272]
   + 2.15814e-07 beta[273] - 1.93323e-07 beta[274] - 3.07136e-07 beta[275]
   + 8.06594e-08 beta[276] + 3.5988e-07 beta[277] - 4.26263e-09 beta[278]
   - 4.05396e-07 beta[279] - 3.94296e-06 beta[280] - 3.18113e-07 beta[281]
   + 1.96367e-06 beta[282] + 4.6819e-07 beta[283] - 1.47422e-06 beta[284]
   - 5.8005e-07 beta[285] + 1.25322e-06 beta[286] + 6.96622e-07 beta[287]
   >= -2.3904e-05
 R640: 5.94778e-11 beta[0] - 2.97709e-10 beta[1] + 6.18263e-11 beta[2]
   - 4.48076e-11 beta[3] - 6.95575e-11 beta[4] - 1.8488e-11 beta[5]
   + 2.92317e-11 beta[6] + 3.79773e-11 beta[7] - 1.27057e-10 beta[8]
   + 2.85944e-10 beta[9] + 1.10301e-10 beta[10] - 6.91761e-11 beta[12]
   - 5.67712e-11 beta[13] - 1.41895e-11 beta[14] + 1.64651e-11 beta[15]
   + 3.76426e-10 beta[16] - 4.19427e-10 beta[17] + 1.53579e-10 beta[18]
   + 1.27475e-10 beta[19] - 4.02894e-12 beta[20] - 7.74783e-11 beta[21]
   - 8.38235e-11 beta[22] - 4.89975e-11 beta[23] - 4.32442e-09 beta[24]
   - 1.58931e-10 beta[25] + 1.22657e-10 beta[26] + 3.36652e-10 beta[27]
   + 2.3001e-10 beta[28] + 6.73363e-11 beta[29] - 5.61376e-11 beta[30]
   - 1.0062e-10 beta[31] + 2.15039e-08 beta[32] - 1.65841e-09 beta[33]
   - 6.65582e-10 beta[34] + 2.67954e-10 beta[35] + 5.2124e-10 beta[36]
   + 4.69095e-10 beta[37] + 2.89584e-10 beta[38] + 1.06905e-10 beta[39]
   + 2.37266e-08 beta[40] + 5.47045e-09 beta[41] - 2.38566e-09 beta[42]
   - 1.40397e-09 beta[43] - 2.9038e-10 beta[44] + 3.09902e-10 beta[45]
   + 5.3055e-10 beta[46] + 4.87571e-10 beta[47] - 4.89741e-07 beta[48]
   - 2.26564e-08 beta[49] - 4.15019e-09 beta[50] - 4.64991e-09 beta[51]
   - 3.47989e-09 beta[52] - 2.15893e-09 beta[53] - 1.06056e-09 beta[54]
   - 3.33292e-10 beta[55] + 1.16278e-06 beta[56] + 2.58293e-08 beta[57]
   + 9.0822e-09 beta[58] + 2.35567e-09 beta[59] - 1.38691e-09 beta[60]
   - 2.6285e-09 beta[61] - 2.58046e-09 beta[62] - 1.9439e-09 beta[63]
   + 2.38949e-06 beta[64] + 3.43162e-07 beta[65] + 6.90778e-08 beta[66]
   + 3.16383e-08 beta[67] + 1.76792e-08 beta[68] + 9.52697e-09 beta[69]
   + 4.47018e-09 beta[70] + 1.63788e-09 beta[71] - 1.55196e-05 beta[72]
   - 1.0021e-06 beta[73] - 7.55325e-08 beta[74] - 1.98856e-09 beta[75]
   + 8.9742e-09 beta[76] + 1.05312e-08 beta[77] + 8.86469e-09 beta[78]
   + 6.18683e-09 beta[79] + 1.50271e-05 beta[80] - 6.07865e-07 beta[81]
   - 3.81753e-07 beta[82] - 1.59625e-07 beta[83] - 7.74755e-08 beta[84]
   - 3.91658e-08 beta[85] - 1.86183e-08 beta[86] - 7.88841e-09 beta[87]
   + 5.79307e-05 beta[88] + 6.20174e-06 beta[89] + 6.22008e-07 beta[90]
   + 5.05888e-08 beta[91] - 1.572e-08 beta[92] - 2.43029e-08 beta[93]
   - 2.10492e-08 beta[94] - 1.47485e-08 beta[95] + 1.08272e-10 beta[96]
   + 2.44321e-11 beta[97] - 2.20834e-11 beta[98] - 7.10793e-11 beta[99]
   - 1.40541e-12 beta[100] + 9.91065e-11 beta[101] + 1.13206e-10 beta[102]
   + 4.47425e-11 beta[103] + 1.60137e-10 beta[104] + 3.87598e-11 beta[105]
   - 1.04324e-11 beta[106] - 7.41856e-11 beta[107] - 4.12649e-11 beta[108]
   + 4.53684e-11 beta[109] + 9.23166e-11 beta[110] + 7.42548e-11 beta[111]
   - 4.26319e-10 beta[112] - 2.57164e-11 beta[113] + 1.23773e-11 beta[114]
   - 6.76696e-11 beta[115] - 1.03852e-10 beta[116] - 6.55728e-11 beta[117]
   + 8.81631e-12 beta[118] + 6.67488e-11 beta[119] + 2.02963e-09 beta[120]
   - 1.34593e-10 beta[121] - 9.83557e-12 beta[122] - 2.07073e-11 beta[123]
   - 1.20983e-10 beta[124] - 1.81568e-10 beta[125] - 1.46764e-10 beta[126]
   - 5.00333e-11 beta[127] + 9.40048e-09 beta[128] + 2.22471e-09 beta[129]
   + 3.52992e-10 beta[130] + 1.31941e-10 beta[131] - 5.30422e-13 beta[132]
   - 1.76003e-10 beta[133] - 2.82336e-10 beta[134] - 2.71191e-10 beta[135]
   - 6.17458e-08 beta[136] - 4.05263e-09 beta[137] + 5.51854e-10 beta[138]
   + 5.57248e-10 beta[139] + 4.19087e-10 beta[140] + 1.96347e-10 beta[141]
   - 7.92502e-11 beta[142] - 2.95625e-10 beta[143] + 1.22797e-08 beta[144]
   - 1.60049e-08 beta[145] - 3.51337e-09 beta[146] + 1.38191e-10 beta[147]
   + 9.5194e-10 beta[148] + 1.08061e-09 beta[149] + 8.93066e-10 beta[150]
   + 5.37539e-10 beta[151] + 6.0025e-07 beta[152] + 8.51419e-08 beta[153]
   + 8.10447e-09 beta[154] - 1.02233e-10 beta[155] + 1.64339e-10 beta[156]
   + 1.01627e-09 beta[157] + 1.56217e-09 beta[158] + 1.70271e-09 beta[159]
   - 1.18342e-06 beta[160] - 6.86445e-08 beta[161] + 3.4188e-09 beta[162]
   - 1.35682e-09 beta[163] - 3.694e-09 beta[164] - 3.19628e-09 beta[165]
   - 1.86197e-09 beta[166] - 5.47321e-10 beta[167] - 1.97139e-06 beta[168]
   - 4.68064e-07 beta[169] - 8.96899e-08 beta[170] - 1.80928e-08 beta[171]
   - 8.14218e-09 beta[172] - 7.59462e-09 beta[173] - 7.33002e-09 beta[174]
   - 6.31996e-09 beta[175] + 9.40799e-06 beta[176] + 1.28947e-06 beta[177]
   + 1.69784e-07 beta[178] + 3.14245e-08 beta[179] + 1.40103e-08 beta[180]
   + 8.07216e-09 beta[181] + 3.26949e-09 beta[182] - 3.04871e-10 beta[183]
   - 4.35245e-06 beta[184] + 1.71837e-07 beta[185] + 2.01784e-07 beta[186]
   + 8.37824e-08 beta[187] + 4.43713e-08 beta[188] + 3.26204e-08 beta[189]
   + 2.61319e-08 beta[190] + 2.01308e-08 beta[191] + 1.54865e-10 beta[192]
   - 3.39954e-12 beta[193] - 9.83107e-11 beta[194] + 5.12804e-11 beta[195]
   + 2.29961e-10 beta[196] - 2.13847e-10 beta[197] - 1.10035e-09 beta[198]
   - 2.08777e-11 beta[199] - 1.30342e-11 beta[200] - 4.03554e-12 beta[201]
   + 2.43384e-11 beta[202] - 4.27237e-11 beta[203] - 1.48715e-10 beta[204]
   + 2.35549e-10 beta[205] + 9.26219e-10 beta[206] - 2.29411e-10 beta[207]
   - 9.65742e-11 beta[208] + 1.55649e-11 beta[209] + 3.79952e-11 beta[210]
   + 2.84661e-11 beta[211] + 4.88625e-11 beta[212] - 2.6838e-10 beta[213]
   - 6.23806e-10 beta[214] + 6.54772e-10 beta[215] + 4.44305e-10 beta[216]
   + 3.93922e-11 beta[217] - 2.15934e-10 beta[218] - 1.1074e-10 beta[219]
   + 1.47981e-10 beta[220] + 4.14636e-10 beta[221] + 1.48834e-10 beta[222]
   - 1.25602e-09 beta[223] + 1.98178e-09 beta[224] + 1.24563e-10 beta[225]
   - 9.78571e-10 beta[226] - 1.46737e-10 beta[227] + 6.48119e-10 beta[228]
   - 8.84319e-11 beta[229] - 3.83742e-10 beta[230] + 1.17774e-09 beta[231]
   + 1.92834e-09 beta[232] - 1.54031e-10 beta[233] - 1.02775e-09 beta[234]
   + 2.0848e-10 beta[235] + 1.01095e-09 beta[236] - 5.1189e-11 beta[237]
   - 1.5275e-09 beta[238] - 1.05488e-09 beta[239] - 1.39291e-08 beta[240]
   - 1.03723e-09 beta[241] + 6.95155e-09 beta[242] + 1.53839e-09 beta[243]
   - 5.36452e-09 beta[244] - 1.95995e-09 beta[245] + 5.32604e-09 beta[246]
   + 2.99182e-09 beta[247] - 1.9262e-08 beta[248] + 3.40344e-10 beta[249]
   + 9.74888e-09 beta[250] - 4.0278e-10 beta[251] - 7.33263e-09 beta[252]
   + 1.97604e-10 beta[253] + 5.30859e-09 beta[254] + 6.76918e-11 beta[255]
   + 8.27055e-08 beta[256] + 5.44837e-09 beta[257] - 4.09025e-08 beta[258]
   - 8.30198e-09 beta[259] + 2.97607e-08 beta[260] + 1.09066e-08 beta[261]
   - 2.28588e-08 beta[262] - 1.40894e-08 beta[263] + 6.80358e-08 beta[264]
   - 1.18228e-09 beta[265] - 3.47159e-08 beta[266] + 1.83659e-09 beta[267]
   + 2.72324e-08 beta[268] - 2.83764e-09 beta[269] - 2.45374e-08 beta[270]
   + 5.49619e-09 beta[271] - 4.00481e-07 beta[272] - 2.40125e-08 beta[273]
   + 1.98293e-07 beta[274] + 3.56808e-08 beta[275] - 1.45113e-07 beta[276]
   - 4.33693e-08 beta[277] + 1.15803e-07 beta[278] + 4.66365e-08 beta[279]
   - 2.11364e-08 beta[280] + 1.17989e-08 beta[281] + 1.34505e-08 beta[282]
   - 1.70335e-08 beta[283] - 1.54751e-08 beta[284] + 1.94195e-08 beta[285]
   + 2.1103e-08 beta[286] - 1.75281e-08 beta[287] <= 2.3904e-05
 R641: 5.94778e-11 beta[0] - 2.97709e-10 beta[1] + 6.18263e-11 beta[2]
   - 4.48076e-11 beta[3] - 6.95575e-11 beta[4] - 1.8488e-11 beta[5]
   + 2.92317e-11 beta[6] + 3.79773e-11 beta[7] - 1.27057e-10 beta[8]
   + 2.85944e-10 beta[9] + 1.10301e-10 beta[10] - 6.91761e-11 beta[12]
   - 5.67712e-11 beta[13] - 1.41895e-11 beta[14] + 1.64651e-11 beta[15]
   + 3.76426e-10 beta[16] - 4.19427e-10 beta[17] + 1.53579e-10 beta[18]
   + 1.27475e-10 beta[19] - 4.02894e-12 beta[20] - 7.74783e-11 beta[21]
   - 8.38235e-11 beta[22] - 4.89975e-11 beta[23] - 4.32442e-09 beta[24]
   - 1.58931e-10 beta[25] + 1.22657e-10 beta[26] + 3.36652e-10 beta[27]
   + 2.3001e-10 beta[28] + 6.73363e-11 beta[29] - 5.61376e-11 beta[30]
   - 1.0062e-10 beta[31] + 2.15039e-08 beta[32] - 1.65841e-09 beta[33]
   - 6.65582e-10 beta[34] + 2.67954e-10 beta[35] + 5.2124e-10 beta[36]
   + 4.69095e-10 beta[37] + 2.89584e-10 beta[38] + 1.06905e-10 beta[39]
   + 2.37266e-08 beta[40] + 5.47045e-09 beta[41] - 2.38566e-09 beta[42]
   - 1.40397e-09 beta[43] - 2.9038e-10 beta[44] + 3.09902e-10 beta[45]
   + 5.3055e-10 beta[46] + 4.87571e-10 beta[47] - 4.89741e-07 beta[48]
   - 2.26564e-08 beta[49] - 4.15019e-09 beta[50] - 4.64991e-09 beta[51]
   - 3.47989e-09 beta[52] - 2.15893e-09 beta[53] - 1.06056e-09 beta[54]
   - 3.33292e-10 beta[55] + 1.16278e-06 beta[56] + 2.58293e-08 beta[57]
   + 9.0822e-09 beta[58] + 2.35567e-09 beta[59] - 1.38691e-09 beta[60]
   - 2.6285e-09 beta[61] - 2.58046e-09 beta[62] - 1.9439e-09 beta[63]
   + 2.38949e-06 beta[64] + 3.43162e-07 beta[65] + 6.90778e-08 beta[66]
   + 3.16383e-08 beta[67] + 1.76792e-08 beta[68] + 9.52697e-09 beta[69]
   + 4.47018e-09 beta[70] + 1.63788e-09 beta[71] - 1.55196e-05 beta[72]
   - 1.0021e-06 beta[73] - 7.55325e-08 beta[74] - 1.98856e-09 beta[75]
   + 8.9742e-09 beta[76] + 1.05312e-08 beta[77] + 8.86469e-09 beta[78]
   + 6.18683e-09 beta[79] + 1.50271e-05 beta[80] - 6.07865e-07 beta[81]
   - 3.81753e-07 beta[82] - 1.59625e-07 beta[83] - 7.74755e-08 beta[84]
   - 3.91658e-08 beta[85] - 1.86183e-08 beta[86] - 7.88841e-09 beta[87]
   + 5.79307e-05 beta[88] + 6.20174e-06 beta[89] + 6.22008e-07 beta[90]
   + 5.05888e-08 beta[91] - 1.572e-08 beta[92] - 2.43029e-08 beta[93]
   - 2.10492e-08 beta[94] - 1.47485e-08 beta[95] + 1.08272e-10 beta[96]
   + 2.44321e-11 beta[97] - 2.20834e-11 beta[98] - 7.10793e-11 beta[99]
   - 1.40541e-12 beta[100] + 9.91065e-11 beta[101] + 1.13206e-10 beta[102]
   + 4.47425e-11 beta[103] + 1.60137e-10 beta[104] + 3.87598e-11 beta[105]
   - 1.04324e-11 beta[106] - 7.41856e-11 beta[107] - 4.12649e-11 beta[108]
   + 4.53684e-11 beta[109] + 9.23166e-11 beta[110] + 7.42548e-11 beta[111]
   - 4.26319e-10 beta[112] - 2.57164e-11 beta[113] + 1.23773e-11 beta[114]
   - 6.76696e-11 beta[115] - 1.03852e-10 beta[116] - 6.55728e-11 beta[117]
   + 8.81631e-12 beta[118] + 6.67488e-11 beta[119] + 2.02963e-09 beta[120]
   - 1.34593e-10 beta[121] - 9.83557e-12 beta[122] - 2.07073e-11 beta[123]
   - 1.20983e-10 beta[124] - 1.81568e-10 beta[125] - 1.46764e-10 beta[126]
   - 5.00333e-11 beta[127] + 9.40048e-09 beta[128] + 2.22471e-09 beta[129]
   + 3.52992e-10 beta[130] + 1.31941e-10 beta[131] - 5.30422e-13 beta[132]
   - 1.76003e-10 beta[133] - 2.82336e-10 beta[134] - 2.71191e-10 beta[135]
   - 6.17458e-08 beta[136] - 4.05263e-09 beta[137] + 5.51854e-10 beta[138]
   + 5.57248e-10 beta[139] + 4.19087e-10 beta[140] + 1.96347e-10 beta[141]
   - 7.92502e-11 beta[142] - 2.95625e-10 beta[143] + 1.22797e-08 beta[144]
   - 1.60049e-08 beta[145] - 3.51337e-09 beta[146] + 1.38191e-10 beta[147]
   + 9.5194e-10 beta[148] + 1.08061e-09 beta[149] + 8.93066e-10 beta[150]
   + 5.37539e-10 beta[151] + 6.0025e-07 beta[152] + 8.51419e-08 beta[153]
   + 8.10447e-09 beta[154] - 1.02233e-10 beta[155] + 1.64339e-10 beta[156]
   + 1.01627e-09 beta[157] + 1.56217e-09 beta[158] + 1.70271e-09 beta[159]
   - 1.18342e-06 beta[160] - 6.86445e-08 beta[161] + 3.4188e-09 beta[162]
   - 1.35682e-09 beta[163] - 3.694e-09 beta[164] - 3.19628e-09 beta[165]
   - 1.86197e-09 beta[166] - 5.47321e-10 beta[167] - 1.97139e-06 beta[168]
   - 4.68064e-07 beta[169] - 8.96899e-08 beta[170] - 1.80928e-08 beta[171]
   - 8.14218e-09 beta[172] - 7.59462e-09 beta[173] - 7.33002e-09 beta[174]
   - 6.31996e-09 beta[175] + 9.40799e-06 beta[176] + 1.28947e-06 beta[177]
   + 1.69784e-07 beta[178] + 3.14245e-08 beta[179] + 1.40103e-08 beta[180]
   + 8.07216e-09 beta[181] + 3.26949e-09 beta[182] - 3.04871e-10 beta[183]
   - 4.35245e-06 beta[184] + 1.71837e-07 beta[185] + 2.01784e-07 beta[186]
   + 8.37824e-08 beta[187] + 4.43713e-08 beta[188] + 3.26204e-08 beta[189]
   + 2.61319e-08 beta[190] + 2.01308e-08 beta[191] + 1.54865e-10 beta[192]
   - 3.39954e-12 beta[193] - 9.83107e-11 beta[194] + 5.12804e-11 beta[195]
   + 2.29961e-10 beta[196] - 2.13847e-10 beta[197] - 1.10035e-09 beta[198]
   - 2.08777e-11 beta[199] - 1.30342e-11 beta[200] - 4.03554e-12 beta[201]
   + 2.43384e-11 beta[202] - 4.27237e-11 beta[203] - 1.48715e-10 beta[204]
   + 2.35549e-10 beta[205] + 9.26219e-10 beta[206] - 2.29411e-10 beta[207]
   - 9.65742e-11 beta[208] + 1.55649e-11 beta[209] + 3.79952e-11 beta[210]
   + 2.84661e-11 beta[211] + 4.88625e-11 beta[212] - 2.6838e-10 beta[213]
   - 6.23806e-10 beta[214] + 6.54772e-10 beta[215] + 4.44305e-10 beta[216]
   + 3.93922e-11 beta[217] - 2.15934e-10 beta[218] - 1.1074e-10 beta[219]
   + 1.47981e-10 beta[220] + 4.14636e-10 beta[221] + 1.48834e-10 beta[222]
   - 1.25602e-09 beta[223] + 1.98178e-09 beta[224] + 1.24563e-10 beta[225]
   - 9.78571e-10 beta[226] - 1.46737e-10 beta[227] + 6.48119e-10 beta[228]
   - 8.84319e-11 beta[229] - 3.83742e-10 beta[230] + 1.17774e-09 beta[231]
   + 1.92834e-09 beta[232] - 1.54031e-10 beta[233] - 1.02775e-09 beta[234]
   + 2.0848e-10 beta[235] + 1.01095e-09 beta[236] - 5.1189e-11 beta[237]
   - 1.5275e-09 beta[238] - 1.05488e-09 beta[239] - 1.39291e-08 beta[240]
   - 1.03723e-09 beta[241] + 6.95155e-09 beta[242] + 1.53839e-09 beta[243]
   - 5.36452e-09 beta[244] - 1.95995e-09 beta[245] + 5.32604e-09 beta[246]
   + 2.99182e-09 beta[247] - 1.9262e-08 beta[248] + 3.40344e-10 beta[249]
   + 9.74888e-09 beta[250] - 4.0278e-10 beta[251] - 7.33263e-09 beta[252]
   + 1.97604e-10 beta[253] + 5.30859e-09 beta[254] + 6.76918e-11 beta[255]
   + 8.27055e-08 beta[256] + 5.44837e-09 beta[257] - 4.09025e-08 beta[258]
   - 8.30198e-09 beta[259] + 2.97607e-08 beta[260] + 1.09066e-08 beta[261]
   - 2.28588e-08 beta[262] - 1.40894e-08 beta[263] + 6.80358e-08 beta[264]
   - 1.18228e-09 beta[265] - 3.47159e-08 beta[266] + 1.83659e-09 beta[267]
   + 2.72324e-08 beta[268] - 2.83764e-09 beta[269] - 2.45374e-08 beta[270]
   + 5.49619e-09 beta[271] - 4.00481e-07 beta[272] - 2.40125e-08 beta[273]
   + 1.98293e-07 beta[274] + 3.56808e-08 beta[275] - 1.45113e-07 beta[276]
   - 4.33693e-08 beta[277] + 1.15803e-07 beta[278] + 4.66365e-08 beta[279]
   - 2.11364e-08 beta[280] + 1.17989e-08 beta[281] + 1.34505e-08 beta[282]
   - 1.70335e-08 beta[283] - 1.54751e-08 beta[284] + 1.94195e-08 beta[285]
   + 2.1103e-08 beta[286] - 1.75281e-08 beta[287] >= -2.3904e-05
 R642: 3.97771e-12 beta[0] - 7.91944e-11 beta[1] - 2.66433e-10 beta[2]
   + 7.66216e-10 beta[3] + 2.55666e-10 beta[4] - 6.32859e-10 beta[5]
   - 4.8121e-10 beta[6] + 2.15381e-11 beta[7] + 9.66338e-12 beta[8]
   - 2.00018e-11 beta[9] - 5.61472e-10 beta[10] + 6.56793e-10 beta[11]
   + 7.2577e-10 beta[12] - 2.67453e-10 beta[13] - 5.7626e-10 beta[14]
   - 2.83352e-10 beta[15] - 4.52788e-10 beta[16] + 2.04596e-10 beta[17]
   - 1.1475e-09 beta[18] + 5.65351e-12 beta[19] + 1.37649e-09 beta[20]
   + 7.24841e-10 beta[21] - 2.73503e-10 beta[22] - 5.89182e-10 beta[23]
   + 1.63192e-09 beta[24] + 6.81504e-10 beta[25] - 1.72217e-09 beta[26]
   - 1.97219e-09 beta[27] + 1.10247e-09 beta[28] + 2.1704e-09 beta[29]
   + 1.13025e-09 beta[30] - 6.13187e-11 beta[31] + 2.42144e-08 beta[32]
   + 2.58635e-09 beta[33] - 9.43613e-10 beta[34] - 5.57653e-09 beta[35]
   - 2.45787e-09 beta[36] + 1.9087e-09 beta[37] + 3.07555e-09 beta[38]
   + 2.03329e-09 beta[39] - 1.21094e-07 beta[40] + 8.48456e-09 beta[41]
   + 5.14963e-09 beta[42] - 7.46053e-09 beta[43] - 1.07825e-08 beta[44]
   - 4.95224e-09 beta[45] + 9.14687e-10 beta[46] + 3.23539e-09 beta[47]
   - 3.47799e-07 beta[48] - 7.30991e-09 beta[49] + 2.3634e-08 beta[50]
   + 6.32626e-09 beta[51] - 1.41051e-08 beta[52] - 1.81974e-08 beta[53]
   - 1.17439e-08 beta[54] - 4.29001e-09 beta[55] + 2.7454e-06 beta[56]
   - 1.0038e-08 beta[57] + 5.12688e-08 beta[58] + 5.94177e-08 beta[59]
   + 2.42072e-08 beta[60] - 7.71887e-09 beta[61] - 1.98086e-08 beta[62]
   - 1.81416e-08 beta[63] + 2.79911e-07 beta[64] + 1.22169e-07 beta[65]
   + 1.16532e-08 beta[66] + 1.08066e-07 beta[67] + 1.19119e-07 beta[68]
   + 7.6797e-08 beta[69] + 3.18639e-08 beta[70] + 4.34202e-09 beta[71]
   - 2.8544e-05 beta[72] - 7.49811e-07 beta[73] - 3.61361e-07 beta[74]
   - 1.41871e-07 beta[75] + 4.60716e-08 beta[76] + 1.17278e-07 beta[77]
   + 1.09992e-07 beta[78] + 7.61541e-08 beta[79] + 3.27358e-05 beta[80]
   - 1.28581e-06 beta[81] - 8.68313e-07 beta[82] - 8.25579e-07 beta[83]
   - 5.43299e-07 beta[84] - 2.59915e-07 beta[85] - 8.10628e-08 beta[86]
   + 2.15517e-09 beta[87] + 1.4827515332904717e-04 beta[88]
   + 6.6143e-06 beta[89] + 1.15404e-06 beta[90] - 1.02911e-07 beta[91]
   - 5.91161e-07 beta[92] - 6.0449e-07 beta[93] - 4.44431e-07 beta[94]
   - 2.76588e-07 beta[95] - 1.73825e-09 beta[96] + 1.64523e-10 beta[97]
   + 9.06826e-10 beta[98] - 1.84577e-10 beta[99] - 1.87751e-09 beta[100]
   - 7.98116e-10 beta[101] + 9.85001e-10 beta[102] + 1.49827e-09 beta[103]
   - 1.77941e-09 beta[104] + 7.4328e-11 beta[105] + 9.46979e-10 beta[106]
   + 2.62578e-10 beta[107] - 1.61058e-09 beta[108] - 1.24608e-09 beta[109]
   + 2.19338e-10 beta[110] + 1.05051e-09 beta[111] - 1.35536e-09 beta[112]
   - 1.87983e-10 beta[113] + 9.26103e-10 beta[114] + 1.12003e-09 beta[115]
   - 8.03165e-10 beta[116] - 1.69785e-09 beta[117] - 1.10347e-09 beta[118]
   - 6.23326e-11 beta[119] + 2.00668e-09 beta[120] - 4.75491e-10 beta[121]
   + 5.96731e-10 beta[122] + 2.18099e-09 beta[123] + 9.20407e-10 beta[124]
   - 1.25294e-09 beta[125] - 2.24812e-09 beta[126] - 1.78262e-09 beta[127]
   - 1.13713e-08 beta[128] - 6.22357e-11 beta[129] - 3.30828e-10 beta[130]
   + 2.80926e-09 beta[131] + 3.58071e-09 beta[132] + 1.19623e-09 beta[133]
   - 1.62911e-09 beta[134] - 2.93388e-09 beta[135] - 5.83227e-08 beta[136]
   - 5.09941e-09 beta[137] - 2.31505e-09 beta[138] + 1.64567e-09 beta[139]
   + 5.94909e-09 beta[140] + 5.91374e-09 beta[141] + 2.69828e-09 beta[142]
   - 7.59266e-10 beta[143] + 2.48324e-07 beta[144] - 1.22084e-08 beta[145]
   - 7.3842e-09 beta[146] - 3.85588e-09 beta[147] + 4.11932e-09 beta[148]
   + 9.74932e-09 beta[149] + 1.01837e-08 beta[150] + 7.04883e-09 beta[151]
   + 5.34799e-07 beta[152] + 4.47303e-08 beta[153] - 1.26361e-08 beta[154]
   - 1.72343e-08 beta[155] - 9.7591e-09 beta[156] + 2.22115e-09 beta[157]
   + 1.12784e-08 beta[158] + 1.46623e-08 beta[159] - 2.84517e-06 beta[160]
   - 3.0453e-09 beta[161] - 8.73765e-09 beta[162] - 3.45197e-08 beta[163]
   - 4.04009e-08 beta[164] - 3.10377e-08 beta[165] - 1.50313e-08 beta[166]
   - 4.36655e-10 beta[167] - 1.97627e-06 beta[168] - 3.29807e-07 beta[169]
   + 5.42679e-09 beta[170] - 1.44898e-08 beta[171] - 5.02681e-08 beta[172]
   - 6.77556e-08 beta[173] - 6.56123e-08 beta[174] - 5.17359e-08 beta[175]
   + 1.96446e-05 beta[176] + 6.70255e-07 beta[177] + 1.5724e-07 beta[178]
   + 1.39588e-07 beta[179] + 7.99906e-08 beta[180] + 1.50295e-08 beta[181]
   - 3.21989e-08 beta[182] - 5.65941e-08 beta[183] - 2.10276e-06 beta[184]
   + 1.39118e-06 beta[185] + 3.68839e-07 beta[186] + 3.37895e-07 beta[187]
   + 3.34055e-07 beta[188] + 2.78905e-07 beta[189] + 2.00711e-07 beta[190]
   + 1.25556e-07 beta[191] + 1.10785e-09 beta[192] - 9.70241e-11 beta[193]
   - 5.71167e-10 beta[194] - 6.4382e-10 beta[195] + 1.1851e-09 beta[196]
   + 5.48007e-09 beta[197] - 2.63171e-09 beta[198] - 2.65399e-08 beta[199]
   - 1.34821e-09 beta[200] + 1.36389e-10 beta[201] + 7.12511e-10 beta[202]
   + 4.76248e-10 beta[203] - 1.41809e-09 beta[204] - 4.6546e-09 beta[205]
   + 3.69362e-09 beta[206] + 2.33555e-08 beta[207] + 1.50321e-09 beta[208]
   - 1.89378e-10 beta[209] - 8.30063e-10 beta[210] - 1.83644e-10 beta[211]
   + 1.70429e-09 beta[212] + 3.09739e-09 beta[213] - 5.33018e-09 beta[214]
   - 1.71764e-08 beta[215] - 2.5419e-09 beta[216] + 2.39893e-10 beta[217]
   + 1.40871e-09 beta[218] - 1.97995e-10 beta[219] - 2.31686e-09 beta[220]
   - 9.5271e-10 beta[221] + 7.18164e-09 beta[222] + 8.4271e-09 beta[223]
   + 1.3322e-09 beta[224] + 1.61824e-10 beta[225] - 8.75871e-10 beta[226]
   - 3.61922e-11 beta[227] + 1.95906e-09 beta[228] - 7.04352e-10 beta[229]
   - 7.45373e-09 beta[230] + 1.04409e-09 beta[231] + 3.04745e-08 beta[232]
   - 5.24463e-11 beta[233] - 1.50259e-08 beta[234] - 5.12461e-10 beta[235]
   + 1.02949e-08 beta[236] + 3.33274e-09 beta[237] - 3.75969e-09 beta[238]
   - 1.19178e-08 beta[239] + 3.89807e-08 beta[240] - 2.19327e-09 beta[241]
   - 1.9879e-08 beta[242] + 4.19929e-09 beta[243] + 1.55887e-08 beta[244]
   - 9.45813e-09 beta[245] - 1.5507e-08 beta[246] + 2.56165e-08 beta[247]
   - 2.56576e-07 beta[248] - 6.23802e-09 beta[249] + 1.28723e-07 beta[250]
   + 8.32941e-09 beta[251] - 9.64793e-08 beta[252] - 5.65507e-09 beta[253]
   + 7.881e-08 beta[254] - 1.13603e-08 beta[255] - 5.13818e-07 beta[256]
   + 1.23711e-08 beta[257] + 2.57631e-07 beta[258] - 1.76421e-08 beta[259]
   - 1.96182e-07 beta[260] + 1.79768e-08 beta[261] + 1.72603e-07 beta[262]
   - 4.21436e-09 beta[263] + 1.59603e-06 beta[264] + 3.96687e-08 beta[265]
   - 7.9813e-07 beta[266] - 5.99631e-08 beta[267] + 6.01139e-07 beta[268]
   + 7.6816e-08 beta[269] - 5.12778e-07 beta[270] - 9.95016e-08 beta[271]
   + 2.87601e-06 beta[272] - 2.81338e-08 beta[273] - 1.44065e-06 beta[274]
   + 4.15213e-08 beta[275] + 1.08266e-06 beta[276] - 4.93952e-08 beta[277]
   - 8.9504e-07 beta[278] + 5.40534e-08 beta[279] - 7.75384e-06 beta[280]
   - 1.86713e-07 beta[281] + 3.87163e-06 beta[282] + 2.81932e-07 beta[283]
   - 2.89269e-06 beta[284] - 3.59602e-07 beta[285] + 2.38756e-06 beta[286]
   + 4.38921e-07 beta[287] <= 2.3904e-05
 R643: 3.97771e-12 beta[0] - 7.91944e-11 beta[1] - 2.66433e-10 beta[2]
   + 7.66216e-10 beta[3] + 2.55666e-10 beta[4] - 6.32859e-10 beta[5]
   - 4.8121e-10 beta[6] + 2.15381e-11 beta[7] + 9.66338e-12 beta[8]
   - 2.00018e-11 beta[9] - 5.61472e-10 beta[10] + 6.56793e-10 beta[11]
   + 7.2577e-10 beta[12] - 2.67453e-10 beta[13] - 5.7626e-10 beta[14]
   - 2.83352e-10 beta[15] - 4.52788e-10 beta[16] + 2.04596e-10 beta[17]
   - 1.1475e-09 beta[18] + 5.65351e-12 beta[19] + 1.37649e-09 beta[20]
   + 7.24841e-10 beta[21] - 2.73503e-10 beta[22] - 5.89182e-10 beta[23]
   + 1.63192e-09 beta[24] + 6.81504e-10 beta[25] - 1.72217e-09 beta[26]
   - 1.97219e-09 beta[27] + 1.10247e-09 beta[28] + 2.1704e-09 beta[29]
   + 1.13025e-09 beta[30] - 6.13187e-11 beta[31] + 2.42144e-08 beta[32]
   + 2.58635e-09 beta[33] - 9.43613e-10 beta[34] - 5.57653e-09 beta[35]
   - 2.45787e-09 beta[36] + 1.9087e-09 beta[37] + 3.07555e-09 beta[38]
   + 2.03329e-09 beta[39] - 1.21094e-07 beta[40] + 8.48456e-09 beta[41]
   + 5.14963e-09 beta[42] - 7.46053e-09 beta[43] - 1.07825e-08 beta[44]
   - 4.95224e-09 beta[45] + 9.14687e-10 beta[46] + 3.23539e-09 beta[47]
   - 3.47799e-07 beta[48] - 7.30991e-09 beta[49] + 2.3634e-08 beta[50]
   + 6.32626e-09 beta[51] - 1.41051e-08 beta[52] - 1.81974e-08 beta[53]
   - 1.17439e-08 beta[54] - 4.29001e-09 beta[55] + 2.7454e-06 beta[56]
   - 1.0038e-08 beta[57] + 5.12688e-08 beta[58] + 5.94177e-08 beta[59]
   + 2.42072e-08 beta[60] - 7.71887e-09 beta[61] - 1.98086e-08 beta[62]
   - 1.81416e-08 beta[63] + 2.79911e-07 beta[64] + 1.22169e-07 beta[65]
   + 1.16532e-08 beta[66] + 1.08066e-07 beta[67] + 1.19119e-07 beta[68]
   + 7.6797e-08 beta[69] + 3.18639e-08 beta[70] + 4.34202e-09 beta[71]
   - 2.8544e-05 beta[72] - 7.49811e-07 beta[73] - 3.61361e-07 beta[74]
   - 1.41871e-07 beta[75] + 4.60716e-08 beta[76] + 1.17278e-07 beta[77]
   + 1.09992e-07 beta[78] + 7.61541e-08 beta[79] + 3.27358e-05 beta[80]
   - 1.28581e-06 beta[81] - 8.68313e-07 beta[82] - 8.25579e-07 beta[83]
   - 5.43299e-07 beta[84] - 2.59915e-07 beta[85] - 8.10628e-08 beta[86]
   + 2.15517e-09 beta[87] + 1.4827515332904717e-04 beta[88]
   + 6.6143e-06 beta[89] + 1.15404e-06 beta[90] - 1.02911e-07 beta[91]
   - 5.91161e-07 beta[92] - 6.0449e-07 beta[93] - 4.44431e-07 beta[94]
   - 2.76588e-07 beta[95] - 1.73825e-09 beta[96] + 1.64523e-10 beta[97]
   + 9.06826e-10 beta[98] - 1.84577e-10 beta[99] - 1.87751e-09 beta[100]
   - 7.98116e-10 beta[101] + 9.85001e-10 beta[102] + 1.49827e-09 beta[103]
   - 1.77941e-09 beta[104] + 7.4328e-11 beta[105] + 9.46979e-10 beta[106]
   + 2.62578e-10 beta[107] - 1.61058e-09 beta[108] - 1.24608e-09 beta[109]
   + 2.19338e-10 beta[110] + 1.05051e-09 beta[111] - 1.35536e-09 beta[112]
   - 1.87983e-10 beta[113] + 9.26103e-10 beta[114] + 1.12003e-09 beta[115]
   - 8.03165e-10 beta[116] - 1.69785e-09 beta[117] - 1.10347e-09 beta[118]
   - 6.23326e-11 beta[119] + 2.00668e-09 beta[120] - 4.75491e-10 beta[121]
   + 5.96731e-10 beta[122] + 2.18099e-09 beta[123] + 9.20407e-10 beta[124]
   - 1.25294e-09 beta[125] - 2.24812e-09 beta[126] - 1.78262e-09 beta[127]
   - 1.13713e-08 beta[128] - 6.22357e-11 beta[129] - 3.30828e-10 beta[130]
   + 2.80926e-09 beta[131] + 3.58071e-09 beta[132] + 1.19623e-09 beta[133]
   - 1.62911e-09 beta[134] - 2.93388e-09 beta[135] - 5.83227e-08 beta[136]
   - 5.09941e-09 beta[137] - 2.31505e-09 beta[138] + 1.64567e-09 beta[139]
   + 5.94909e-09 beta[140] + 5.91374e-09 beta[141] + 2.69828e-09 beta[142]
   - 7.59266e-10 beta[143] + 2.48324e-07 beta[144] - 1.22084e-08 beta[145]
   - 7.3842e-09 beta[146] - 3.85588e-09 beta[147] + 4.11932e-09 beta[148]
   + 9.74932e-09 beta[149] + 1.01837e-08 beta[150] + 7.04883e-09 beta[151]
   + 5.34799e-07 beta[152] + 4.47303e-08 beta[153] - 1.26361e-08 beta[154]
   - 1.72343e-08 beta[155] - 9.7591e-09 beta[156] + 2.22115e-09 beta[157]
   + 1.12784e-08 beta[158] + 1.46623e-08 beta[159] - 2.84517e-06 beta[160]
   - 3.0453e-09 beta[161] - 8.73765e-09 beta[162] - 3.45197e-08 beta[163]
   - 4.04009e-08 beta[164] - 3.10377e-08 beta[165] - 1.50313e-08 beta[166]
   - 4.36655e-10 beta[167] - 1.97627e-06 beta[168] - 3.29807e-07 beta[169]
   + 5.42679e-09 beta[170] - 1.44898e-08 beta[171] - 5.02681e-08 beta[172]
   - 6.77556e-08 beta[173] - 6.56123e-08 beta[174] - 5.17359e-08 beta[175]
   + 1.96446e-05 beta[176] + 6.70255e-07 beta[177] + 1.5724e-07 beta[178]
   + 1.39588e-07 beta[179] + 7.99906e-08 beta[180] + 1.50295e-08 beta[181]
   - 3.21989e-08 beta[182] - 5.65941e-08 beta[183] - 2.10276e-06 beta[184]
   + 1.39118e-06 beta[185] + 3.68839e-07 beta[186] + 3.37895e-07 beta[187]
   + 3.34055e-07 beta[188] + 2.78905e-07 beta[189] + 2.00711e-07 beta[190]
   + 1.25556e-07 beta[191] + 1.10785e-09 beta[192] - 9.70241e-11 beta[193]
   - 5.71167e-10 beta[194] - 6.4382e-10 beta[195] + 1.1851e-09 beta[196]
   + 5.48007e-09 beta[197] - 2.63171e-09 beta[198] - 2.65399e-08 beta[199]
   - 1.34821e-09 beta[200] + 1.36389e-10 beta[201] + 7.12511e-10 beta[202]
   + 4.76248e-10 beta[203] - 1.41809e-09 beta[204] - 4.6546e-09 beta[205]
   + 3.69362e-09 beta[206] + 2.33555e-08 beta[207] + 1.50321e-09 beta[208]
   - 1.89378e-10 beta[209] - 8.30063e-10 beta[210] - 1.83644e-10 beta[211]
   + 1.70429e-09 beta[212] + 3.09739e-09 beta[213] - 5.33018e-09 beta[214]
   - 1.71764e-08 beta[215] - 2.5419e-09 beta[216] + 2.39893e-10 beta[217]
   + 1.40871e-09 beta[218] - 1.97995e-10 beta[219] - 2.31686e-09 beta[220]
   - 9.5271e-10 beta[221] + 7.18164e-09 beta[222] + 8.4271e-09 beta[223]
   + 1.3322e-09 beta[224] + 1.61824e-10 beta[225] - 8.75871e-10 beta[226]
   - 3.61922e-11 beta[227] + 1.95906e-09 beta[228] - 7.04352e-10 beta[229]
   - 7.45373e-09 beta[230] + 1.04409e-09 beta[231] + 3.04745e-08 beta[232]
   - 5.24463e-11 beta[233] - 1.50259e-08 beta[234] - 5.12461e-10 beta[235]
   + 1.02949e-08 beta[236] + 3.33274e-09 beta[237] - 3.75969e-09 beta[238]
   - 1.19178e-08 beta[239] + 3.89807e-08 beta[240] - 2.19327e-09 beta[241]
   - 1.9879e-08 beta[242] + 4.19929e-09 beta[243] + 1.55887e-08 beta[244]
   - 9.45813e-09 beta[245] - 1.5507e-08 beta[246] + 2.56165e-08 beta[247]
   - 2.56576e-07 beta[248] - 6.23802e-09 beta[249] + 1.28723e-07 beta[250]
   + 8.32941e-09 beta[251] - 9.64793e-08 beta[252] - 5.65507e-09 beta[253]
   + 7.881e-08 beta[254] - 1.13603e-08 beta[255] - 5.13818e-07 beta[256]
   + 1.23711e-08 beta[257] + 2.57631e-07 beta[258] - 1.76421e-08 beta[259]
   - 1.96182e-07 beta[260] + 1.79768e-08 beta[261] + 1.72603e-07 beta[262]
   - 4.21436e-09 beta[263] + 1.59603e-06 beta[264] + 3.96687e-08 beta[265]
   - 7.9813e-07 beta[266] - 5.99631e-08 beta[267] + 6.01139e-07 beta[268]
   + 7.6816e-08 beta[269] - 5.12778e-07 beta[270] - 9.95016e-08 beta[271]
   + 2.87601e-06 beta[272] - 2.81338e-08 beta[273] - 1.44065e-06 beta[274]
   + 4.15213e-08 beta[275] + 1.08266e-06 beta[276] - 4.93952e-08 beta[277]
   - 8.9504e-07 beta[278] + 5.40534e-08 beta[279] - 7.75384e-06 beta[280]
   - 1.86713e-07 beta[281] + 3.87163e-06 beta[282] + 2.81932e-07 beta[283]
   - 2.89269e-06 beta[284] - 3.59602e-07 beta[285] + 2.38756e-06 beta[286]
   + 4.38921e-07 beta[287] >= -2.3904e-05
 R644: - 9.19248e-12 beta[0] - 1.26346e-11 beta[1] + 3.37531e-12 beta[2]
   + 1.16801e-12 beta[3] + 1.85959e-13 beta[4] + 9.19265e-12 beta[8]
   + 1.26346e-11 beta[9] - 3.37531e-12 beta[10] - 1.16801e-12 beta[11]
   - 1.85959e-13 beta[12] - 9.19265e-12 beta[16] - 1.26346e-11 beta[17]
   + 3.37531e-12 beta[18] + 1.16801e-12 beta[19] + 1.85959e-13 beta[20]
   + 9.19248e-12 beta[24] + 1.26346e-11 beta[25] - 3.37531e-12 beta[26]
   - 1.16801e-12 beta[27] - 1.85959e-13 beta[28] - 9.19242e-12 beta[32]
   - 1.26346e-11 beta[33] + 3.37531e-12 beta[34] + 1.16801e-12 beta[35]
   + 1.85959e-13 beta[36] + 9.19248e-12 beta[40] + 1.26346e-11 beta[41]
   - 3.37531e-12 beta[42] - 1.16801e-12 beta[43] - 1.85959e-13 beta[44]
   - 9.19242e-12 beta[48] - 1.26346e-11 beta[49] + 3.37531e-12 beta[50]
   + 1.16801e-12 beta[51] + 1.85959e-13 beta[52] + 9.19248e-12 beta[56]
   + 1.26347e-11 beta[57] - 3.37531e-12 beta[58] - 1.16801e-12 beta[59]
   - 1.85959e-13 beta[60] - 9.19237e-12 beta[64] - 1.26347e-11 beta[65]
   + 3.37532e-12 beta[66] + 1.16801e-12 beta[67] + 1.85958e-13 beta[68]
   + 9.19259e-12 beta[72] + 1.26347e-11 beta[73] - 3.37532e-12 beta[74]
   - 1.168e-12 beta[75] - 1.85959e-13 beta[76] - 9.19248e-12 beta[80]
   - 1.26347e-11 beta[81] + 3.37532e-12 beta[82] + 1.16801e-12 beta[83]
   + 1.85959e-13 beta[84] + 9.19226e-12 beta[88] + 1.26347e-11 beta[89]
   - 3.37531e-12 beta[90] - 1.16801e-12 beta[91] - 1.85958e-13 beta[92]
   + 4.2004e-12 beta[192] - 1.72924e-12 beta[193] - 1.5089e-12 beta[194]
   + 3.20939e-12 beta[195] + 3.54388e-13 beta[196] - 5.31839e-12 beta[197]
   + 1.35207e-13 beta[198] + 8.20367e-12 beta[199] + 1.89437e-11 beta[200]
   - 1.43095e-12 beta[201] - 1.05196e-11 beta[202] + 1.95117e-12 beta[203]
   + 9.71894e-12 beta[204] - 1.98976e-12 beta[205] - 1.04797e-11 beta[206]
   + 1.53947e-12 beta[207] + 2.3456e-11 beta[208] + 5.01394e-12 beta[209]
   - 1.22163e-11 beta[210] - 8.0154e-12 beta[211] + 9.84624e-12 beta[212]
   + 1.10873e-11 beta[213] - 8.70892e-12 beta[214] - 1.46186e-11 beta[215]
   - 4.66305e-11 beta[216] + 8.38648e-12 beta[217] + 2.56716e-11 beta[218]
   - 1.23174e-11 beta[219] - 2.33997e-11 beta[220] + 1.47854e-11 beta[221]
   + 2.49738e-11 beta[222] - 1.61658e-11 beta[223] - 1.64856e-10 beta[224]
   - 8.26924e-12 beta[225] + 8.44198e-11 beta[226] + 1.32245e-11 beta[227]
   - 6.66074e-11 beta[228] - 1.83384e-11 beta[229] + 5.9369e-11 beta[230]
   + 2.43404e-11 beta[231] - 9.06319e-11 beta[232] - 3.07598e-11 beta[233]
   + 4.16873e-11 beta[234] + 4.61127e-11 beta[235] - 2.48066e-11 beta[236]
   - 5.7542e-11 beta[237] + 1.19682e-11 beta[238] + 6.68669e-11 beta[239]
   + 3.54689e-10 beta[240] - 1.25178e-11 beta[241] - 1.84162e-10 beta[242]
   + 1.74719e-11 beta[243] + 1.49859e-10 beta[244] - 1.89297e-11 beta[245]
   - 1.39803e-10 beta[246] + 1.7248e-11 beta[247] + 7.59602e-10 beta[248]
   + 5.61339e-11 beta[249] - 3.79209e-10 beta[250] - 8.51306e-11 beta[251]
   + 2.83115e-10 beta[252] + 1.08449e-10 beta[253] - 2.33643e-10 beta[254]
   - 1.29811e-10 beta[255] + 2.25265e-10 beta[256] + 9.56062e-11 beta[257]
   - 9.97454e-11 beta[258] - 1.42261e-10 beta[259] + 5.2319e-11 beta[260]
   + 1.7524e-10 beta[261] - 1.42982e-11 beta[262] - 2.00074e-10 beta[263]
   - 1.46018e-09 beta[264] + 7.35313e-12 beta[265] + 7.434e-10 beta[266]
   - 8.68081e-12 beta[267] - 5.80478e-10 beta[268] + 5.62215e-12 beta[269]
   + 5.12919e-10 beta[270] + 2.10421e-12 beta[271] - 2.71278e-09 beta[272]
   - 1.81859e-10 beta[273] + 1.35146e-09 beta[274] + 2.73481e-10 beta[275]
   - 1.00475e-09 beta[276] - 3.43366e-10 beta[277] + 8.25207e-10 beta[278]
   + 4.03034e-10 beta[279] - 9.15938e-10 beta[280] - 2.87122e-10 beta[281]
   + 4.32512e-10 beta[282] + 4.28329e-10 beta[283] - 2.80056e-10 beta[284]
   - 5.30138e-10 beta[285] + 1.7585e-10 beta[286] + 6.09668e-10 beta[287]
   <= 2.3904e-05
 R645: - 9.19248e-12 beta[0] - 1.26346e-11 beta[1] + 3.37531e-12 beta[2]
   + 1.16801e-12 beta[3] + 1.85959e-13 beta[4] + 9.19265e-12 beta[8]
   + 1.26346e-11 beta[9] - 3.37531e-12 beta[10] - 1.16801e-12 beta[11]
   - 1.85959e-13 beta[12] - 9.19265e-12 beta[16] - 1.26346e-11 beta[17]
   + 3.37531e-12 beta[18] + 1.16801e-12 beta[19] + 1.85959e-13 beta[20]
   + 9.19248e-12 beta[24] + 1.26346e-11 beta[25] - 3.37531e-12 beta[26]
   - 1.16801e-12 beta[27] - 1.85959e-13 beta[28] - 9.19242e-12 beta[32]
   - 1.26346e-11 beta[33] + 3.37531e-12 beta[34] + 1.16801e-12 beta[35]
   + 1.85959e-13 beta[36] + 9.19248e-12 beta[40] + 1.26346e-11 beta[41]
   - 3.37531e-12 beta[42] - 1.16801e-12 beta[43] - 1.85959e-13 beta[44]
   - 9.19242e-12 beta[48] - 1.26346e-11 beta[49] + 3.37531e-12 beta[50]
   + 1.16801e-12 beta[51] + 1.85959e-13 beta[52] + 9.19248e-12 beta[56]
   + 1.26347e-11 beta[57] - 3.37531e-12 beta[58] - 1.16801e-12 beta[59]
   - 1.85959e-13 beta[60] - 9.19237e-12 beta[64] - 1.26347e-11 beta[65]
   + 3.37532e-12 beta[66] + 1.16801e-12 beta[67] + 1.85958e-13 beta[68]
   + 9.19259e-12 beta[72] + 1.26347e-11 beta[73] - 3.37532e-12 beta[74]
   - 1.168e-12 beta[75] - 1.85959e-13 beta[76] - 9.19248e-12 beta[80]
   - 1.26347e-11 beta[81] + 3.37532e-12 beta[82] + 1.16801e-12 beta[83]
   + 1.85959e-13 beta[84] + 9.19226e-12 beta[88] + 1.26347e-11 beta[89]
   - 3.37531e-12 beta[90] - 1.16801e-12 beta[91] - 1.85958e-13 beta[92]
   + 4.2004e-12 beta[192] - 1.72924e-12 beta[193] - 1.5089e-12 beta[194]
   + 3.20939e-12 beta[195] + 3.54388e-13 beta[196] - 5.31839e-12 beta[197]
   + 1.35207e-13 beta[198] + 8.20367e-12 beta[199] + 1.89437e-11 beta[200]
   - 1.43095e-12 beta[201] - 1.05196e-11 beta[202] + 1.95117e-12 beta[203]
   + 9.71894e-12 beta[204] - 1.98976e-12 beta[205] - 1.04797e-11 beta[206]
   + 1.53947e-12 beta[207] + 2.3456e-11 beta[208] + 5.01394e-12 beta[209]
   - 1.22163e-11 beta[210] - 8.0154e-12 beta[211] + 9.84624e-12 beta[212]
   + 1.10873e-11 beta[213] - 8.70892e-12 beta[214] - 1.46186e-11 beta[215]
   - 4.66305e-11 beta[216] + 8.38648e-12 beta[217] + 2.56716e-11 beta[218]
   - 1.23174e-11 beta[219] - 2.33997e-11 beta[220] + 1.47854e-11 beta[221]
   + 2.49738e-11 beta[222] - 1.61658e-11 beta[223] - 1.64856e-10 beta[224]
   - 8.26924e-12 beta[225] + 8.44198e-11 beta[226] + 1.32245e-11 beta[227]
   - 6.66074e-11 beta[228] - 1.83384e-11 beta[229] + 5.9369e-11 beta[230]
   + 2.43404e-11 beta[231] - 9.06319e-11 beta[232] - 3.07598e-11 beta[233]
   + 4.16873e-11 beta[234] + 4.61127e-11 beta[235] - 2.48066e-11 beta[236]
   - 5.7542e-11 beta[237] + 1.19682e-11 beta[238] + 6.68669e-11 beta[239]
   + 3.54689e-10 beta[240] - 1.25178e-11 beta[241] - 1.84162e-10 beta[242]
   + 1.74719e-11 beta[243] + 1.49859e-10 beta[244] - 1.89297e-11 beta[245]
   - 1.39803e-10 beta[246] + 1.7248e-11 beta[247] + 7.59602e-10 beta[248]
   + 5.61339e-11 beta[249] - 3.79209e-10 beta[250] - 8.51306e-11 beta[251]
   + 2.83115e-10 beta[252] + 1.08449e-10 beta[253] - 2.33643e-10 beta[254]
   - 1.29811e-10 beta[255] + 2.25265e-10 beta[256] + 9.56062e-11 beta[257]
   - 9.97454e-11 beta[258] - 1.42261e-10 beta[259] + 5.2319e-11 beta[260]
   + 1.7524e-10 beta[261] - 1.42982e-11 beta[262] - 2.00074e-10 beta[263]
   - 1.46018e-09 beta[264] + 7.35313e-12 beta[265] + 7.434e-10 beta[266]
   - 8.68081e-12 beta[267] - 5.80478e-10 beta[268] + 5.62215e-12 beta[269]
   + 5.12919e-10 beta[270] + 2.10421e-12 beta[271] - 2.71278e-09 beta[272]
   - 1.81859e-10 beta[273] + 1.35146e-09 beta[274] + 2.73481e-10 beta[275]
   - 1.00475e-09 beta[276] - 3.43366e-10 beta[277] + 8.25207e-10 beta[278]
   + 4.03034e-10 beta[279] - 9.15938e-10 beta[280] - 2.87122e-10 beta[281]
   + 4.32512e-10 beta[282] + 4.28329e-10 beta[283] - 2.80056e-10 beta[284]
   - 5.30138e-10 beta[285] + 1.7585e-10 beta[286] + 6.09668e-10 beta[287]
   >= -2.3904e-05
 R646: 2.50589e-07 beta[0] - 1.32881e-07 beta[1] - 5.5767e-09 beta[2]
   - 7.02575e-09 beta[3] - 3.27058e-09 beta[4] - 8.55193e-10 beta[5]
   - 1.42999e-10 beta[6] - 7.70777e-12 beta[7] + 4.30926e-07 beta[8]
   + 4.51866e-08 beta[9] + 9.90071e-09 beta[10] + 3.30572e-09 beta[11]
   + 2.19659e-09 beta[12] + 1.06847e-09 beta[13] + 4.71479e-10 beta[14]
   + 1.96239e-10 beta[15] - 1.15859e-07 beta[16] + 3.67628e-08 beta[17]
   + 1.18423e-09 beta[18] + 7.16815e-09 beta[19] + 3.1982e-09 beta[20]
   + 1.29324e-09 beta[21] + 5.63732e-10 beta[22] + 2.45392e-10 beta[23]
   - 1.31523e-06 beta[24] - 1.18375e-08 beta[25] - 2.99856e-09 beta[26]
   - 2.10242e-09 beta[27] - 6.59519e-10 beta[28] + 1.24039e-10 beta[29]
   + 2.41687e-10 beta[30] + 1.71133e-10 beta[31] + 1.31709e-06 beta[32]
   - 4.66816e-08 beta[33] + 4.09775e-10 beta[34] - 2.8307e-09 beta[35]
   + 2.18307e-10 beta[36] + 5.70077e-10 beta[37] + 4.06573e-10 beta[38]
   + 2.62569e-10 beta[39] + 1.42274e-06 beta[40] - 5.13831e-10 beta[41]
   + 7.67133e-09 beta[42] + 9.42083e-09 beta[43] + 3.8241e-09 beta[44]
   + 1.5116e-09 beta[45] + 7.29252e-10 beta[46] + 4.23022e-10 beta[47]
   - 3.72852e-06 beta[48] + 1.42804e-07 beta[49] + 1.67587e-08 beta[50]
   + 3.61947e-09 beta[51] + 1.01721e-09 beta[52] + 7.70764e-10 beta[53]
   + 6.08589e-10 beta[54] + 4.46722e-10 beta[55] + 1.11668e-06 beta[56]
   - 1.23733e-07 beta[57] - 2.09246e-08 beta[58] - 9.5083e-09 beta[59]
   - 1.38739e-09 beta[60] + 4.22669e-10 beta[61] + 5.71974e-10 beta[62]
   + 4.84903e-10 beta[63] + 4.99237e-06 beta[64] - 1.99211e-07 beta[65]
   - 1.49535e-08 beta[66] + 7.21798e-09 beta[67] + 3.58118e-09 beta[68]
   + 1.56075e-09 beta[69] + 8.95305e-10 beta[70] + 6.49483e-10 beta[71]
   - 6.02901e-06 beta[72] + 4.04038e-07 beta[73] + 5.78992e-08 beta[74]
   + 1.47658e-08 beta[75] + 3.7752e-09 beta[76] + 1.47735e-09 beta[77]
   + 9.44251e-10 beta[78] + 7.24743e-10 beta[79] - 2.04574e-06 beta[80]
   + 5.56817e-08 beta[81] - 1.56928e-08 beta[82] - 1.43799e-08 beta[83]
   - 2.46522e-09 beta[84] + 3.37074e-10 beta[85] + 6.37794e-10 beta[86]
   + 5.60891e-10 beta[87] + 9.66236e-06 beta[88] - 6.37098e-07 beta[89]
   - 7.07824e-08 beta[90] - 6.95429e-09 beta[91] + 2.76632e-10 beta[92]
   + 6.96238e-10 beta[93] + 4.62914e-10 beta[94] + 3.0696e-10 beta[95]
   + 1.91041e-07 beta[96] - 7.49495e-09 beta[97] - 6.2302e-10 beta[98]
   + 1.50936e-09 beta[99] + 9.76931e-10 beta[100] + 1.20045e-09 beta[101]
   + 1.2121e-09 beta[102] + 1.07646e-09 beta[103] - 7.04057e-08 beta[104]
   + 1.035e-08 beta[105] - 6.62225e-10 beta[106] + 1.96695e-09 beta[107]
   + 1.70514e-09 beta[108] + 1.51692e-09 beta[109] + 1.28022e-09 beta[110]
   + 1.05842e-09 beta[111] - 1.44876e-07 beta[112] + 5.25868e-09 beta[113]
   - 1.52308e-09 beta[114] + 9.25683e-10 beta[115] + 1.47226e-09 beta[116]
   + 1.31628e-09 beta[117] + 1.1518e-09 beta[118] + 9.98317e-10 beta[119]
   + 9.71249e-08 beta[120] - 1.56981e-08 beta[121] + 1.86369e-11 beta[122]
   - 2.47825e-10 beta[123] + 9.07762e-10 beta[124] + 1.12987e-09 beta[125]
   + 1.12324e-09 beta[126] + 1.02131e-09 beta[127] + 1.65836e-07 beta[128]
   - 1.17267e-08 beta[129] + 2.77985e-09 beta[130] + 1.21329e-09 beta[131]
   + 1.58466e-09 beta[132] + 1.56437e-09 beta[133] + 1.33437e-09 beta[134]
   + 1.10443e-09 beta[135] - 1.19513e-07 beta[136] + 6.70154e-09 beta[137]
   + 1.82615e-09 beta[138] + 2.48399e-09 beta[139] + 1.77561e-09 beta[140]
   + 1.49048e-09 beta[141] + 1.24343e-09 beta[142] + 1.03954e-09 beta[143]
   - 1.26785e-07 beta[144] - 1.46346e-09 beta[145] - 2.90787e-09 beta[146]
   + 4.6244e-10 beta[147] + 5.86024e-10 beta[148] + 8.6876e-10 beta[149]
   + 1.01038e-09 beta[150] + 9.87315e-10 beta[151] + 1.96209e-07 beta[152]
   - 1.29608e-08 beta[153] - 5.37181e-09 beta[154] - 5.46003e-11 beta[155]
   + 1.12232e-09 beta[156] + 1.24438e-09 beta[157] + 1.17983e-09 beta[158]
   + 1.04904e-09 beta[159] + 2.37465e-08 beta[160] + 1.46071e-08 beta[161]
   + 1.1392e-09 beta[162] + 2.31062e-09 beta[163] + 2.62566e-09 beta[164]
   + 1.9004e-09 beta[165] + 1.37343e-09 beta[166] + 1.07987e-09 beta[167]
   - 2.82864e-07 beta[168] + 1.86373e-08 beta[169] + 6.37954e-09 beta[170]
   - 4.77379e-11 beta[171] + 5.43728e-10 beta[172] + 9.47845e-10 beta[173]
   + 9.96445e-10 beta[174] + 9.32541e-10 beta[175] + 1.29688e-07 beta[176]
   - 3.89952e-08 beta[177] - 4.05353e-10 beta[178] - 2.34921e-09 beta[179]
   - 1.18086e-09 beta[180] + 1.78746e-10 beta[181] + 6.887e-10 beta[182]
   + 7.58037e-10 beta[183] + 2.79782e-07 beta[184] - 3.93551e-08 beta[185]
   - 2.10944e-09 beta[186] + 5.2432e-09 beta[187] + 2.74891e-09 beta[188]
   + 1.58926e-09 beta[189] + 1.17507e-09 beta[190] + 9.72241e-10 beta[191]
   - 5.08911e-08 beta[192] - 1.2633e-08 beta[193] + 2.48825e-08 beta[194]
   + 1.8315e-08 beta[195] - 1.7051e-08 beta[196] - 1.8111e-08 beta[197]
   + 1.76812e-08 beta[198] + 1.6662e-08 beta[199] - 5.54159e-08 beta[200]
   + 1.61223e-09 beta[201] + 2.74951e-08 beta[202] - 2.02682e-09 beta[203]
   - 2.15071e-08 beta[204] - 2.23573e-09 beta[205] + 1.47544e-08 beta[206]
   + 8.44063e-09 beta[207] - 6.938e-08 beta[208] + 1.63162e-08 beta[209]
   + 3.37812e-08 beta[210] - 2.45878e-08 beta[211] - 2.11778e-08 beta[212]
   + 3.56483e-08 beta[213] + 1.36398e-08 beta[214] - 4.97859e-08 beta[215]
   - 1.43158e-07 beta[216] + 3.55109e-09 beta[217] + 7.71097e-08 beta[218]
   - 7.52188e-09 beta[219] - 7.16856e-08 beta[220] + 9.37992e-09 beta[221]
   + 8.04655e-08 beta[222] - 9.89025e-09 beta[223] + 4.62947e-08 beta[224]
   - 5.38942e-08 beta[225] - 2.11495e-08 beta[226] + 8.79008e-08 beta[227]
   + 1.66432e-08 beta[228] - 1.21744e-07 beta[229] - 1.84962e-08 beta[230]
   + 1.63147e-07 beta[231] + 7.42228e-07 beta[232] - 1.50111e-08 beta[233]
   - 3.97241e-07 beta[234] + 1.6246e-08 beta[235] + 3.4284e-07 beta[236]
   - 8.25981e-09 beta[237] - 3.4831e-07 beta[238] - 1.69065e-08 beta[239]
   + 3.50844e-07 beta[240] + 1.6708e-07 beta[241] - 1.6044e-07 beta[242]
   - 2.58491e-07 beta[243] + 9.01303e-08 beta[244] + 3.4191e-07 beta[245]
   - 2.02015e-08 beta[246] - 4.21062e-07 beta[247] - 1.9798e-06 beta[248]
   - 2.9667e-09 beta[249] + 1.04565e-06 beta[250] + 2.39014e-08 beta[251]
   - 8.78969e-07 beta[252] - 7.67764e-08 beta[253] + 8.422e-07 beta[254]
   + 1.63257e-07 beta[255] - 1.25672e-06 beta[256] - 3.94677e-07 beta[257]
   + 5.59456e-07 beta[258] + 5.91933e-07 beta[259] - 2.92343e-07 beta[260]
   - 7.32617e-07 beta[261] + 7.10765e-08 beta[262] + 8.38187e-07 beta[263]
   + 4.13399e-06 beta[264] + 1.4859e-07 beta[265] - 2.13702e-06 beta[266]
   - 2.5877e-07 beta[267] + 1.71204e-06 beta[268] + 3.95321e-07 beta[269]
   - 1.54912e-06 beta[270] - 5.72793e-07 beta[271] + 2.33737e-06 beta[272]
   + 6.96914e-07 beta[273] - 9.99776e-07 beta[274] - 1.01894e-06 beta[275]
   + 4.59133e-07 beta[276] + 1.22072e-06 beta[277] - 4.53765e-09 beta[278]
   - 1.34111e-06 beta[279] - 7.07618e-06 beta[280] - 5.59338e-07 beta[281]
   + 3.56374e-06 beta[282] + 8.77483e-07 beta[283] - 2.70958e-06 beta[284]
   - 1.18706e-06 beta[285] + 2.28185e-06 beta[286] + 1.54031e-06 beta[287]
   <= 2.3904e-05
 R647: 2.50589e-07 beta[0] - 1.32881e-07 beta[1] - 5.5767e-09 beta[2]
   - 7.02575e-09 beta[3] - 3.27058e-09 beta[4] - 8.55193e-10 beta[5]
   - 1.42999e-10 beta[6] - 7.70777e-12 beta[7] + 4.30926e-07 beta[8]
   + 4.51866e-08 beta[9] + 9.90071e-09 beta[10] + 3.30572e-09 beta[11]
   + 2.19659e-09 beta[12] + 1.06847e-09 beta[13] + 4.71479e-10 beta[14]
   + 1.96239e-10 beta[15] - 1.15859e-07 beta[16] + 3.67628e-08 beta[17]
   + 1.18423e-09 beta[18] + 7.16815e-09 beta[19] + 3.1982e-09 beta[20]
   + 1.29324e-09 beta[21] + 5.63732e-10 beta[22] + 2.45392e-10 beta[23]
   - 1.31523e-06 beta[24] - 1.18375e-08 beta[25] - 2.99856e-09 beta[26]
   - 2.10242e-09 beta[27] - 6.59519e-10 beta[28] + 1.24039e-10 beta[29]
   + 2.41687e-10 beta[30] + 1.71133e-10 beta[31] + 1.31709e-06 beta[32]
   - 4.66816e-08 beta[33] + 4.09775e-10 beta[34] - 2.8307e-09 beta[35]
   + 2.18307e-10 beta[36] + 5.70077e-10 beta[37] + 4.06573e-10 beta[38]
   + 2.62569e-10 beta[39] + 1.42274e-06 beta[40] - 5.13831e-10 beta[41]
   + 7.67133e-09 beta[42] + 9.42083e-09 beta[43] + 3.8241e-09 beta[44]
   + 1.5116e-09 beta[45] + 7.29252e-10 beta[46] + 4.23022e-10 beta[47]
   - 3.72852e-06 beta[48] + 1.42804e-07 beta[49] + 1.67587e-08 beta[50]
   + 3.61947e-09 beta[51] + 1.01721e-09 beta[52] + 7.70764e-10 beta[53]
   + 6.08589e-10 beta[54] + 4.46722e-10 beta[55] + 1.11668e-06 beta[56]
   - 1.23733e-07 beta[57] - 2.09246e-08 beta[58] - 9.5083e-09 beta[59]
   - 1.38739e-09 beta[60] + 4.22669e-10 beta[61] + 5.71974e-10 beta[62]
   + 4.84903e-10 beta[63] + 4.99237e-06 beta[64] - 1.99211e-07 beta[65]
   - 1.49535e-08 beta[66] + 7.21798e-09 beta[67] + 3.58118e-09 beta[68]
   + 1.56075e-09 beta[69] + 8.95305e-10 beta[70] + 6.49483e-10 beta[71]
   - 6.02901e-06 beta[72] + 4.04038e-07 beta[73] + 5.78992e-08 beta[74]
   + 1.47658e-08 beta[75] + 3.7752e-09 beta[76] + 1.47735e-09 beta[77]
   + 9.44251e-10 beta[78] + 7.24743e-10 beta[79] - 2.04574e-06 beta[80]
   + 5.56817e-08 beta[81] - 1.56928e-08 beta[82] - 1.43799e-08 beta[83]
   - 2.46522e-09 beta[84] + 3.37074e-10 beta[85] + 6.37794e-10 beta[86]
   + 5.60891e-10 beta[87] + 9.66236e-06 beta[88] - 6.37098e-07 beta[89]
   - 7.07824e-08 beta[90] - 6.95429e-09 beta[91] + 2.76632e-10 beta[92]
   + 6.96238e-10 beta[93] + 4.62914e-10 beta[94] + 3.0696e-10 beta[95]
   + 1.91041e-07 beta[96] - 7.49495e-09 beta[97] - 6.2302e-10 beta[98]
   + 1.50936e-09 beta[99] + 9.76931e-10 beta[100] + 1.20045e-09 beta[101]
   + 1.2121e-09 beta[102] + 1.07646e-09 beta[103] - 7.04057e-08 beta[104]
   + 1.035e-08 beta[105] - 6.62225e-10 beta[106] + 1.96695e-09 beta[107]
   + 1.70514e-09 beta[108] + 1.51692e-09 beta[109] + 1.28022e-09 beta[110]
   + 1.05842e-09 beta[111] - 1.44876e-07 beta[112] + 5.25868e-09 beta[113]
   - 1.52308e-09 beta[114] + 9.25683e-10 beta[115] + 1.47226e-09 beta[116]
   + 1.31628e-09 beta[117] + 1.1518e-09 beta[118] + 9.98317e-10 beta[119]
   + 9.71249e-08 beta[120] - 1.56981e-08 beta[121] + 1.86369e-11 beta[122]
   - 2.47825e-10 beta[123] + 9.07762e-10 beta[124] + 1.12987e-09 beta[125]
   + 1.12324e-09 beta[126] + 1.02131e-09 beta[127] + 1.65836e-07 beta[128]
   - 1.17267e-08 beta[129] + 2.77985e-09 beta[130] + 1.21329e-09 beta[131]
   + 1.58466e-09 beta[132] + 1.56437e-09 beta[133] + 1.33437e-09 beta[134]
   + 1.10443e-09 beta[135] - 1.19513e-07 beta[136] + 6.70154e-09 beta[137]
   + 1.82615e-09 beta[138] + 2.48399e-09 beta[139] + 1.77561e-09 beta[140]
   + 1.49048e-09 beta[141] + 1.24343e-09 beta[142] + 1.03954e-09 beta[143]
   - 1.26785e-07 beta[144] - 1.46346e-09 beta[145] - 2.90787e-09 beta[146]
   + 4.6244e-10 beta[147] + 5.86024e-10 beta[148] + 8.6876e-10 beta[149]
   + 1.01038e-09 beta[150] + 9.87315e-10 beta[151] + 1.96209e-07 beta[152]
   - 1.29608e-08 beta[153] - 5.37181e-09 beta[154] - 5.46003e-11 beta[155]
   + 1.12232e-09 beta[156] + 1.24438e-09 beta[157] + 1.17983e-09 beta[158]
   + 1.04904e-09 beta[159] + 2.37465e-08 beta[160] + 1.46071e-08 beta[161]
   + 1.1392e-09 beta[162] + 2.31062e-09 beta[163] + 2.62566e-09 beta[164]
   + 1.9004e-09 beta[165] + 1.37343e-09 beta[166] + 1.07987e-09 beta[167]
   - 2.82864e-07 beta[168] + 1.86373e-08 beta[169] + 6.37954e-09 beta[170]
   - 4.77379e-11 beta[171] + 5.43728e-10 beta[172] + 9.47845e-10 beta[173]
   + 9.96445e-10 beta[174] + 9.32541e-10 beta[175] + 1.29688e-07 beta[176]
   - 3.89952e-08 beta[177] - 4.05353e-10 beta[178] - 2.34921e-09 beta[179]
   - 1.18086e-09 beta[180] + 1.78746e-10 beta[181] + 6.887e-10 beta[182]
   + 7.58037e-10 beta[183] + 2.79782e-07 beta[184] - 3.93551e-08 beta[185]
   - 2.10944e-09 beta[186] + 5.2432e-09 beta[187] + 2.74891e-09 beta[188]
   + 1.58926e-09 beta[189] + 1.17507e-09 beta[190] + 9.72241e-10 beta[191]
   - 5.08911e-08 beta[192] - 1.2633e-08 beta[193] + 2.48825e-08 beta[194]
   + 1.8315e-08 beta[195] - 1.7051e-08 beta[196] - 1.8111e-08 beta[197]
   + 1.76812e-08 beta[198] + 1.6662e-08 beta[199] - 5.54159e-08 beta[200]
   + 1.61223e-09 beta[201] + 2.74951e-08 beta[202] - 2.02682e-09 beta[203]
   - 2.15071e-08 beta[204] - 2.23573e-09 beta[205] + 1.47544e-08 beta[206]
   + 8.44063e-09 beta[207] - 6.938e-08 beta[208] + 1.63162e-08 beta[209]
   + 3.37812e-08 beta[210] - 2.45878e-08 beta[211] - 2.11778e-08 beta[212]
   + 3.56483e-08 beta[213] + 1.36398e-08 beta[214] - 4.97859e-08 beta[215]
   - 1.43158e-07 beta[216] + 3.55109e-09 beta[217] + 7.71097e-08 beta[218]
   - 7.52188e-09 beta[219] - 7.16856e-08 beta[220] + 9.37992e-09 beta[221]
   + 8.04655e-08 beta[222] - 9.89025e-09 beta[223] + 4.62947e-08 beta[224]
   - 5.38942e-08 beta[225] - 2.11495e-08 beta[226] + 8.79008e-08 beta[227]
   + 1.66432e-08 beta[228] - 1.21744e-07 beta[229] - 1.84962e-08 beta[230]
   + 1.63147e-07 beta[231] + 7.42228e-07 beta[232] - 1.50111e-08 beta[233]
   - 3.97241e-07 beta[234] + 1.6246e-08 beta[235] + 3.4284e-07 beta[236]
   - 8.25981e-09 beta[237] - 3.4831e-07 beta[238] - 1.69065e-08 beta[239]
   + 3.50844e-07 beta[240] + 1.6708e-07 beta[241] - 1.6044e-07 beta[242]
   - 2.58491e-07 beta[243] + 9.01303e-08 beta[244] + 3.4191e-07 beta[245]
   - 2.02015e-08 beta[246] - 4.21062e-07 beta[247] - 1.9798e-06 beta[248]
   - 2.9667e-09 beta[249] + 1.04565e-06 beta[250] + 2.39014e-08 beta[251]
   - 8.78969e-07 beta[252] - 7.67764e-08 beta[253] + 8.422e-07 beta[254]
   + 1.63257e-07 beta[255] - 1.25672e-06 beta[256] - 3.94677e-07 beta[257]
   + 5.59456e-07 beta[258] + 5.91933e-07 beta[259] - 2.92343e-07 beta[260]
   - 7.32617e-07 beta[261] + 7.10765e-08 beta[262] + 8.38187e-07 beta[263]
   + 4.13399e-06 beta[264] + 1.4859e-07 beta[265] - 2.13702e-06 beta[266]
   - 2.5877e-07 beta[267] + 1.71204e-06 beta[268] + 3.95321e-07 beta[269]
   - 1.54912e-06 beta[270] - 5.72793e-07 beta[271] + 2.33737e-06 beta[272]
   + 6.96914e-07 beta[273] - 9.99776e-07 beta[274] - 1.01894e-06 beta[275]
   + 4.59133e-07 beta[276] + 1.22072e-06 beta[277] - 4.53765e-09 beta[278]
   - 1.34111e-06 beta[279] - 7.07618e-06 beta[280] - 5.59338e-07 beta[281]
   + 3.56374e-06 beta[282] + 8.77483e-07 beta[283] - 2.70958e-06 beta[284]
   - 1.18706e-06 beta[285] + 2.28185e-06 beta[286] + 1.54031e-06 beta[287]
   >= -2.3904e-05
 R648: 2.61003e-06 beta[0] - 2.11081e-07 beta[1] + 1.14646e-07 beta[2]
   - 1.04156e-08 beta[3] - 7.25599e-09 beta[4] - 3.47841e-10 beta[5]
   + 1.73019e-09 beta[6] - 2.73238e-10 beta[7] - 9.79356e-07 beta[8]
   + 5.72394e-08 beta[9] - 4.65793e-08 beta[10] + 4.55155e-09 beta[11]
   + 3.01795e-09 beta[12] - 6.1009e-10 beta[13] - 1.27227e-09 beta[14]
   + 6.08755e-10 beta[15] - 1.96652e-06 beta[16] + 6.03029e-08 beta[17]
   - 3.19828e-08 beta[18] + 1.48807e-09 beta[19] + 1.89271e-09 beta[20]
   + 1.52016e-09 beta[21] + 3.85953e-10 beta[22] - 1.06869e-09 beta[23]
   + 3.13769e-06 beta[24] - 3.16658e-08 beta[25] + 5.78175e-08 beta[26]
   - 3.01055e-09 beta[27] - 3.80437e-09 beta[28] - 1.30909e-09 beta[29]
   + 7.66745e-10 beta[30] + 1.3249e-09 beta[31] + 5.34307e-07 beta[32]
   - 3.13462e-08 beta[33] - 1.70766e-08 beta[34] + 1.19483e-09 beta[35]
   + 2.21232e-09 beta[36] - 2.09221e-10 beta[37] - 1.80105e-09 beta[38]
   - 1.05507e-09 beta[39] - 5.50735e-06 beta[40] - 1.58854e-08 beta[41]
   - 4.15359e-08 beta[42] - 5.69175e-10 beta[43] + 5.30216e-10 beta[44]
   + 2.20736e-09 beta[45] + 2.13738e-09 beta[46] + 4.84992e-11 beta[47]
   + 3.7484e-06 beta[48] + 9.39785e-08 beta[49] + 5.16441e-08 beta[50]
   + 2.44433e-09 beta[51] - 2.39932e-09 beta[52] - 3.45286e-09 beta[53]
   - 1.1827e-09 beta[54] + 1.64984e-09 beta[55] + 5.10088e-06 beta[56]
   - 2.55792e-09 beta[57] + 1.75416e-10 beta[58] - 2.48801e-09 beta[59]
   + 3.63181e-09 beta[60] + 2.8735e-09 beta[61] - 1.31476e-09 beta[62]
   - 3.48784e-09 beta[63] - 9.44251e-06 beta[64] - 1.8801e-07 beta[65]
   - 5.4501e-08 beta[66] - 3.37518e-09 beta[67] - 4.8481e-09 beta[68]
   + 2.49814e-10 beta[69] + 4.70457e-09 beta[70] + 4.18793e-09 beta[71]
   + 3.27501e-07 beta[72] + 1.46336e-07 beta[73] + 4.23689e-08 beta[74]
   + 1.17226e-08 beta[75] + 3.87451e-09 beta[76] - 5.779e-09 beta[77]
   - 6.89228e-09 beta[78] - 2.05917e-09 beta[79] + 1.2509e-05 beta[80]
   + 1.85701e-07 beta[81] + 2.91851e-08 beta[82] - 1.35185e-08 beta[83]
   + 3.59251e-09 beta[84] + 1.12412e-08 beta[85] + 4.63947e-09 beta[86]
   - 3.66016e-09 beta[87] - 9.77218e-06 beta[88] - 3.95832e-07 beta[89]
   - 6.25547e-08 beta[90] + 1.85331e-09 beta[91] - 1.74977e-08 beta[92]
   - 1.07263e-08 beta[93] + 4.19991e-09 beta[94] + 1.07967e-08 beta[95]
   + 8.34837e-07 beta[96] - 7.6374e-08 beta[97] + 1.00598e-08 beta[98]
   - 1.56377e-10 beta[99] - 9.25427e-10 beta[100] - 4.55027e-10 beta[101]
   - 6.88877e-11 beta[102] - 3.53202e-11 beta[103] - 2.78945e-07 beta[104]
   + 1.77356e-08 beta[105] - 3.02011e-09 beta[106] - 3.67936e-10 beta[107]
   + 3.80168e-10 beta[108] + 1.73533e-10 beta[109] + 5.08973e-11 beta[110]
   + 7.4211e-11 beta[111] - 2.40081e-07 beta[112] + 2.4047e-08 beta[113]
   - 1.63541e-09 beta[114] + 2.53841e-10 beta[115] + 2.8147e-10 beta[116]
   + 1.26682e-10 beta[117] - 3.75728e-11 beta[118] - 9.67535e-11 beta[119]
   + 3.67568e-07 beta[120] - 2.26869e-08 beta[121] + 2.97443e-09 beta[122]
   + 3.18404e-10 beta[123] - 4.55269e-10 beta[124] - 1.64643e-10 beta[125]
   + 4.15413e-11 beta[126] + 5.63719e-11 beta[127] - 1.0303e-07 beta[128]
   + 3.60429e-10 beta[129] - 3.19787e-09 beta[130] - 4.04648e-10 beta[131]
   + 1.67542e-13 beta[132] - 4.64666e-11 beta[133] - 3.56355e-11 beta[134]
   + 3.93699e-11 beta[135] - 3.24765e-07 beta[136] + 2.18738e-08 beta[137]
   - 6.88811e-10 beta[138] + 1.42181e-10 beta[139] + 4.37231e-10 beta[140]
   + 1.82709e-10 beta[141] - 4.87355e-11 beta[142] - 1.67567e-10 beta[143]
   + 3.76673e-07 beta[144] - 1.33773e-08 beta[145] + 5.26615e-09 beta[146]
   + 4.00629e-10 beta[147] - 1.49944e-10 beta[148] + 4.25315e-11 beta[149]
   + 2.60126e-10 beta[150] + 3.05412e-10 beta[151] + 1.29565e-07 beta[152]
   - 1.83008e-08 beta[153] - 3.11248e-09 beta[154] - 1.15417e-09 beta[155]
   - 5.69617e-10 beta[156] - 5.25773e-10 beta[157] - 5.01148e-10 beta[158]
   - 3.64448e-10 beta[159] - 5.18285e-07 beta[160] + 1.75509e-08 beta[161]
   - 2.43162e-09 beta[162] + 5.50571e-10 beta[163] + 8.20626e-10 beta[164]
   + 7.68635e-10 beta[165] + 4.38704e-10 beta[166] + 1.41753e-10 beta[167]
   + 1.97002e-07 beta[168] + 1.13906e-08 beta[169] + 5.73576e-09 beta[170]
   + 1.54133e-09 beta[171] - 2.88023e-10 beta[172] - 1.91781e-10 beta[173]
   + 2.64793e-10 beta[174] + 4.65327e-10 beta[175] + 4.52705e-07 beta[176]
   - 1.72968e-08 beta[177] - 4.91885e-09 beta[178] - 1.50315e-09 beta[179]
   - 7.28328e-10 beta[180] - 1.23114e-09 beta[181] - 1.36063e-09 beta[182]
   - 1.10406e-09 beta[183] - 5.5166e-07 beta[184] + 2.84781e-09 beta[185]
   - 4.74714e-09 beta[186] - 1.20054e-09 beta[187] + 1.90127e-09 beta[188]
   + 2.38823e-09 beta[189] + 1.7612e-09 beta[190] + 1.02509e-09 beta[191]
   - 1.70211e-07 beta[192] - 3.57381e-08 beta[193] + 9.77631e-08 beta[194]
   + 5.13229e-08 beta[195] - 9.95039e-08 beta[196] - 6.26919e-08 beta[197]
   + 1.2407e-07 beta[198] + 8.22546e-08 beta[199] + 3.9492e-07 beta[200]
   - 6.1865e-08 beta[201] - 1.9477e-07 beta[202] + 9.74925e-08 beta[203]
   + 1.44436e-07 beta[204] - 1.29701e-07 beta[205] - 1.2427e-07 beta[206]
   + 1.53045e-07 beta[207] + 8.00004e-07 beta[208] - 7.24537e-09 beta[209]
   - 4.17059e-07 beta[210] + 7.64627e-09 beta[211] + 3.4166e-07 beta[212]
   - 3.544e-09 beta[213] - 3.18269e-07 beta[214] + 5.89633e-09 beta[215]
   - 4.20644e-08 beta[216] + 1.17102e-07 beta[217] + 2.49052e-08 beta[218]
   - 1.79383e-07 beta[219] - 2.60843e-08 beta[220] + 2.32092e-07 beta[221]
   + 2.57563e-08 beta[222] - 2.95872e-07 beta[223] - 1.65951e-06 beta[224]
   + 3.45969e-08 beta[225] + 8.54945e-07 beta[226] - 4.44616e-08 beta[227]
   - 6.86467e-07 beta[228] + 4.28997e-08 beta[229] + 6.48823e-07 beta[230]
   - 2.60255e-08 beta[231] - 1.00762e-06 beta[232] - 1.75379e-07 beta[233]
   + 4.79672e-07 beta[234] + 2.66485e-07 beta[235] - 3.12792e-07 beta[236]
   - 3.54518e-07 beta[237] + 1.66625e-07 beta[238] + 4.86406e-07 beta[239]
   + 2.28399e-06 beta[240] - 3.4464e-08 beta[241] - 1.15473e-06 beta[242]
   + 2.33519e-08 beta[243] + 8.92695e-07 beta[244] + 6.62492e-08 beta[245]
   - 7.74167e-07 beta[246] - 3.62118e-07 beta[247] + 2.74414e-06 beta[248]
   + 1.15873e-07 beta[249] - 1.2949e-06 beta[250] - 1.41929e-07 beta[251]
   + 7.90116e-07 beta[252] + 6.36801e-08 beta[253] - 2.85492e-07 beta[254]
   + 3.3779e-07 beta[255] - 1.70161e-06 beta[256] + 5.78865e-08 beta[257]
   + 6.98355e-07 beta[258] - 2.35919e-08 beta[259] - 1.54868e-07 beta[260]
   - 1.1435e-07 beta[261] - 7.16308e-07 beta[262] + 2.00047e-07 beta[263]
   - 6.24151e-06 beta[264] + 5.52993e-07 beta[265] + 3.09483e-06 beta[266]
   - 1.08897e-06 beta[267] - 2.34119e-06 beta[268] + 2.09176e-06 beta[269]
   + 2.36684e-06 beta[270] - 3.88494e-06 beta[271] - 2.93139e-06 beta[272]
   - 8.78946e-07 beta[273] + 2.19811e-06 beta[274] + 1.58823e-06 beta[275]
   - 3.13174e-06 beta[276] - 2.94306e-06 beta[277] + 4.77649e-06 beta[278]
   + 5.98984e-06 beta[279] + 1.79e-05 beta[280] - 2.48275e-06 beta[281]
   - 1.00061e-05 beta[282] + 4.07184e-06 beta[283] + 9.97534e-06 beta[284]
   - 5.47529e-06 beta[285] - 1.30194e-05 beta[286] + 5.54472e-06 beta[287]
   <= 2.3904e-05
 R649: 2.61003e-06 beta[0] - 2.11081e-07 beta[1] + 1.14646e-07 beta[2]
   - 1.04156e-08 beta[3] - 7.25599e-09 beta[4] - 3.47841e-10 beta[5]
   + 1.73019e-09 beta[6] - 2.73238e-10 beta[7] - 9.79356e-07 beta[8]
   + 5.72394e-08 beta[9] - 4.65793e-08 beta[10] + 4.55155e-09 beta[11]
   + 3.01795e-09 beta[12] - 6.1009e-10 beta[13] - 1.27227e-09 beta[14]
   + 6.08755e-10 beta[15] - 1.96652e-06 beta[16] + 6.03029e-08 beta[17]
   - 3.19828e-08 beta[18] + 1.48807e-09 beta[19] + 1.89271e-09 beta[20]
   + 1.52016e-09 beta[21] + 3.85953e-10 beta[22] - 1.06869e-09 beta[23]
   + 3.13769e-06 beta[24] - 3.16658e-08 beta[25] + 5.78175e-08 beta[26]
   - 3.01055e-09 beta[27] - 3.80437e-09 beta[28] - 1.30909e-09 beta[29]
   + 7.66745e-10 beta[30] + 1.3249e-09 beta[31] + 5.34307e-07 beta[32]
   - 3.13462e-08 beta[33] - 1.70766e-08 beta[34] + 1.19483e-09 beta[35]
   + 2.21232e-09 beta[36] - 2.09221e-10 beta[37] - 1.80105e-09 beta[38]
   - 1.05507e-09 beta[39] - 5.50735e-06 beta[40] - 1.58854e-08 beta[41]
   - 4.15359e-08 beta[42] - 5.69175e-10 beta[43] + 5.30216e-10 beta[44]
   + 2.20736e-09 beta[45] + 2.13738e-09 beta[46] + 4.84992e-11 beta[47]
   + 3.7484e-06 beta[48] + 9.39785e-08 beta[49] + 5.16441e-08 beta[50]
   + 2.44433e-09 beta[51] - 2.39932e-09 beta[52] - 3.45286e-09 beta[53]
   - 1.1827e-09 beta[54] + 1.64984e-09 beta[55] + 5.10088e-06 beta[56]
   - 2.55792e-09 beta[57] + 1.75416e-10 beta[58] - 2.48801e-09 beta[59]
   + 3.63181e-09 beta[60] + 2.8735e-09 beta[61] - 1.31476e-09 beta[62]
   - 3.48784e-09 beta[63] - 9.44251e-06 beta[64] - 1.8801e-07 beta[65]
   - 5.4501e-08 beta[66] - 3.37518e-09 beta[67] - 4.8481e-09 beta[68]
   + 2.49814e-10 beta[69] + 4.70457e-09 beta[70] + 4.18793e-09 beta[71]
   + 3.27501e-07 beta[72] + 1.46336e-07 beta[73] + 4.23689e-08 beta[74]
   + 1.17226e-08 beta[75] + 3.87451e-09 beta[76] - 5.779e-09 beta[77]
   - 6.89228e-09 beta[78] - 2.05917e-09 beta[79] + 1.2509e-05 beta[80]
   + 1.85701e-07 beta[81] + 2.91851e-08 beta[82] - 1.35185e-08 beta[83]
   + 3.59251e-09 beta[84] + 1.12412e-08 beta[85] + 4.63947e-09 beta[86]
   - 3.66016e-09 beta[87] - 9.77218e-06 beta[88] - 3.95832e-07 beta[89]
   - 6.25547e-08 beta[90] + 1.85331e-09 beta[91] - 1.74977e-08 beta[92]
   - 1.07263e-08 beta[93] + 4.19991e-09 beta[94] + 1.07967e-08 beta[95]
   + 8.34837e-07 beta[96] - 7.6374e-08 beta[97] + 1.00598e-08 beta[98]
   - 1.56377e-10 beta[99] - 9.25427e-10 beta[100] - 4.55027e-10 beta[101]
   - 6.88877e-11 beta[102] - 3.53202e-11 beta[103] - 2.78945e-07 beta[104]
   + 1.77356e-08 beta[105] - 3.02011e-09 beta[106] - 3.67936e-10 beta[107]
   + 3.80168e-10 beta[108] + 1.73533e-10 beta[109] + 5.08973e-11 beta[110]
   + 7.4211e-11 beta[111] - 2.40081e-07 beta[112] + 2.4047e-08 beta[113]
   - 1.63541e-09 beta[114] + 2.53841e-10 beta[115] + 2.8147e-10 beta[116]
   + 1.26682e-10 beta[117] - 3.75728e-11 beta[118] - 9.67535e-11 beta[119]
   + 3.67568e-07 beta[120] - 2.26869e-08 beta[121] + 2.97443e-09 beta[122]
   + 3.18404e-10 beta[123] - 4.55269e-10 beta[124] - 1.64643e-10 beta[125]
   + 4.15413e-11 beta[126] + 5.63719e-11 beta[127] - 1.0303e-07 beta[128]
   + 3.60429e-10 beta[129] - 3.19787e-09 beta[130] - 4.04648e-10 beta[131]
   + 1.67542e-13 beta[132] - 4.64666e-11 beta[133] - 3.56355e-11 beta[134]
   + 3.93699e-11 beta[135] - 3.24765e-07 beta[136] + 2.18738e-08 beta[137]
   - 6.88811e-10 beta[138] + 1.42181e-10 beta[139] + 4.37231e-10 beta[140]
   + 1.82709e-10 beta[141] - 4.87355e-11 beta[142] - 1.67567e-10 beta[143]
   + 3.76673e-07 beta[144] - 1.33773e-08 beta[145] + 5.26615e-09 beta[146]
   + 4.00629e-10 beta[147] - 1.49944e-10 beta[148] + 4.25315e-11 beta[149]
   + 2.60126e-10 beta[150] + 3.05412e-10 beta[151] + 1.29565e-07 beta[152]
   - 1.83008e-08 beta[153] - 3.11248e-09 beta[154] - 1.15417e-09 beta[155]
   - 5.69617e-10 beta[156] - 5.25773e-10 beta[157] - 5.01148e-10 beta[158]
   - 3.64448e-10 beta[159] - 5.18285e-07 beta[160] + 1.75509e-08 beta[161]
   - 2.43162e-09 beta[162] + 5.50571e-10 beta[163] + 8.20626e-10 beta[164]
   + 7.68635e-10 beta[165] + 4.38704e-10 beta[166] + 1.41753e-10 beta[167]
   + 1.97002e-07 beta[168] + 1.13906e-08 beta[169] + 5.73576e-09 beta[170]
   + 1.54133e-09 beta[171] - 2.88023e-10 beta[172] - 1.91781e-10 beta[173]
   + 2.64793e-10 beta[174] + 4.65327e-10 beta[175] + 4.52705e-07 beta[176]
   - 1.72968e-08 beta[177] - 4.91885e-09 beta[178] - 1.50315e-09 beta[179]
   - 7.28328e-10 beta[180] - 1.23114e-09 beta[181] - 1.36063e-09 beta[182]
   - 1.10406e-09 beta[183] - 5.5166e-07 beta[184] + 2.84781e-09 beta[185]
   - 4.74714e-09 beta[186] - 1.20054e-09 beta[187] + 1.90127e-09 beta[188]
   + 2.38823e-09 beta[189] + 1.7612e-09 beta[190] + 1.02509e-09 beta[191]
   - 1.70211e-07 beta[192] - 3.57381e-08 beta[193] + 9.77631e-08 beta[194]
   + 5.13229e-08 beta[195] - 9.95039e-08 beta[196] - 6.26919e-08 beta[197]
   + 1.2407e-07 beta[198] + 8.22546e-08 beta[199] + 3.9492e-07 beta[200]
   - 6.1865e-08 beta[201] - 1.9477e-07 beta[202] + 9.74925e-08 beta[203]
   + 1.44436e-07 beta[204] - 1.29701e-07 beta[205] - 1.2427e-07 beta[206]
   + 1.53045e-07 beta[207] + 8.00004e-07 beta[208] - 7.24537e-09 beta[209]
   - 4.17059e-07 beta[210] + 7.64627e-09 beta[211] + 3.4166e-07 beta[212]
   - 3.544e-09 beta[213] - 3.18269e-07 beta[214] + 5.89633e-09 beta[215]
   - 4.20644e-08 beta[216] + 1.17102e-07 beta[217] + 2.49052e-08 beta[218]
   - 1.79383e-07 beta[219] - 2.60843e-08 beta[220] + 2.32092e-07 beta[221]
   + 2.57563e-08 beta[222] - 2.95872e-07 beta[223] - 1.65951e-06 beta[224]
   + 3.45969e-08 beta[225] + 8.54945e-07 beta[226] - 4.44616e-08 beta[227]
   - 6.86467e-07 beta[228] + 4.28997e-08 beta[229] + 6.48823e-07 beta[230]
   - 2.60255e-08 beta[231] - 1.00762e-06 beta[232] - 1.75379e-07 beta[233]
   + 4.79672e-07 beta[234] + 2.66485e-07 beta[235] - 3.12792e-07 beta[236]
   - 3.54518e-07 beta[237] + 1.66625e-07 beta[238] + 4.86406e-07 beta[239]
   + 2.28399e-06 beta[240] - 3.4464e-08 beta[241] - 1.15473e-06 beta[242]
   + 2.33519e-08 beta[243] + 8.92695e-07 beta[244] + 6.62492e-08 beta[245]
   - 7.74167e-07 beta[246] - 3.62118e-07 beta[247] + 2.74414e-06 beta[248]
   + 1.15873e-07 beta[249] - 1.2949e-06 beta[250] - 1.41929e-07 beta[251]
   + 7.90116e-07 beta[252] + 6.36801e-08 beta[253] - 2.85492e-07 beta[254]
   + 3.3779e-07 beta[255] - 1.70161e-06 beta[256] + 5.78865e-08 beta[257]
   + 6.98355e-07 beta[258] - 2.35919e-08 beta[259] - 1.54868e-07 beta[260]
   - 1.1435e-07 beta[261] - 7.16308e-07 beta[262] + 2.00047e-07 beta[263]
   - 6.24151e-06 beta[264] + 5.52993e-07 beta[265] + 3.09483e-06 beta[266]
   - 1.08897e-06 beta[267] - 2.34119e-06 beta[268] + 2.09176e-06 beta[269]
   + 2.36684e-06 beta[270] - 3.88494e-06 beta[271] - 2.93139e-06 beta[272]
   - 8.78946e-07 beta[273] + 2.19811e-06 beta[274] + 1.58823e-06 beta[275]
   - 3.13174e-06 beta[276] - 2.94306e-06 beta[277] + 4.77649e-06 beta[278]
   + 5.98984e-06 beta[279] + 1.79e-05 beta[280] - 2.48275e-06 beta[281]
   - 1.00061e-05 beta[282] + 4.07184e-06 beta[283] + 9.97534e-06 beta[284]
   - 5.47529e-06 beta[285] - 1.30194e-05 beta[286] + 5.54472e-06 beta[287]
   >= -2.3904e-05
Bounds
 -25 <= beta[0] <= 25
 -25 <= beta[1] <= 25
 -25 <= beta[2] <= 25
 -25 <= beta[3] <= 25
 -25 <= beta[4] <= 25
 -25 <= beta[5] <= 25
 -25 <= beta[6] <= 25
 -25 <= beta[7] <= 25
 -25 <= beta[8] <= 25
 -25 <= beta[9] <= 25
 -25 <= beta[10] <= 25
 -25 <= beta[11] <= 25
 -25 <= beta[12] <= 25
 -25 <= beta[13] <= 25
 -25 <= beta[14] <= 25
 -25 <= beta[15] <= 25
 -25 <= beta[16] <= 25
 -25 <= beta[17] <= 25
 -25 <= beta[18] <= 25
 -25 <= beta[19] <= 25
 -25 <= beta[20] <= 25
 -25 <= beta[21] <= 25
 -25 <= beta[22] <= 25
 -25 <= beta[23] <= 25
 -25 <= beta[24] <= 25
 -25 <= beta[25] <= 25
 -25 <= beta[26] <= 25
 -25 <= beta[27] <= 25
 -25 <= beta[28] <= 25
 -25 <= beta[29] <= 25
 -25 <= beta[30] <= 25
 -25 <= beta[31] <= 25
 -25 <= beta[32] <= 25
 -25 <= beta[33] <= 25
 -25 <= beta[34] <= 25
 -25 <= beta[35] <= 25
 -25 <= beta[36] <= 25
 -25 <= beta[37] <= 25
 -25 <= beta[38] <= 25
 -25 <= beta[39] <= 25
 -25 <= beta[40] <= 25
 -25 <= beta[41] <= 25
 -25 <= beta[42] <= 25
 -25 <= beta[43] <= 25
 -25 <= beta[44] <= 25
 -25 <= beta[45] <= 25
 -25 <= beta[46] <= 25
 -25 <= beta[47] <= 25
 -25 <= beta[48] <= 25
 -25 <= beta[49] <= 25
 -25 <= beta[50] <= 25
 -25 <= beta[51] <= 25
 -25 <= beta[52] <= 25
 -25 <= beta[53] <= 25
 -25 <= beta[54] <= 25
 -25 <= beta[55] <= 25
 -25 <= beta[56] <= 25
 -25 <= beta[57] <= 25
 -25 <= beta[58] <= 25
 -25 <= beta[59] <= 25
 -25 <= beta[60] <= 25
 -25 <= beta[61] <= 25
 -25 <= beta[62] <= 25
 -25 <= beta[63] <= 25
 -25 <= beta[64] <= 25
 -25 <= beta[65] <= 25
 -25 <= beta[66] <= 25
 -25 <= beta[67] <= 25
 -25 <= beta[68] <= 25
 -25 <= beta[69] <= 25
 -25 <= beta[70] <= 25
 -25 <= beta[71] <= 25
 -25 <= beta[72] <= 25
 -25 <= beta[73] <= 25
 -25 <= beta[74] <= 25
 -25 <= beta[75] <= 25
 -25 <= beta[76] <= 25
 -25 <= beta[77] <= 25
 -25 <= beta[78] <= 25
 -25 <= beta[79] <= 25
 -25 <= beta[80] <= 25
 -25 <= beta[81] <= 25
 -25 <= beta[82] <= 25
 -25 <= beta[83] <= 25
 -25 <= beta[84] <= 25
 -25 <= beta[85] <= 25
 -25 <= beta[86] <= 25
 -25 <= beta[87] <= 25
 -25 <= beta[88] <= 25
 -25 <= beta[89] <= 25
 -25 <= beta[90] <= 25
 -25 <= beta[91] <= 25
 -25 <= beta[92] <= 25
 -25 <= beta[93] <= 25
 -25 <= beta[94] <= 25
 -25 <= beta[95] <= 25
 -25 <= beta[96] <= 25
 -25 <= beta[97] <= 25
 -25 <= beta[98] <= 25
 -25 <= beta[99] <= 25
 -25 <= beta[100] <= 25
 -25 <= beta[101] <= 25
 -25 <= beta[102] <= 25
 -25 <= beta[103] <= 25
 -25 <= beta[104] <= 25
 -25 <= beta[105] <= 25
 -25 <= beta[106] <= 25
 -25 <= beta[107] <= 25
 -25 <= beta[108] <= 25
 -25 <= beta[109] <= 25
 -25 <= beta[110] <= 25
 -25 <= beta[111] <= 25
 -25 <= beta[112] <= 25
 -25 <= beta[113] <= 25
 -25 <= beta[114] <= 25
 -25 <= beta[115] <= 25
 -25 <= beta[116] <= 25
 -25 <= beta[117] <= 25
 -25 <= beta[118] <= 25
 -25 <= beta[119] <= 25
 -25 <= beta[120] <= 25
 -25 <= beta[121] <= 25
 -25 <= beta[122] <= 25
 -25 <= beta[123] <= 25
 -25 <= beta[124] <= 25
 -25 <= beta[125] <= 25
 -25 <= beta[126] <= 25
 -25 <= beta[127] <= 25
 -25 <= beta[128] <= 25
 -25 <= beta[129] <= 25
 -25 <= beta[130] <= 25
 -25 <= beta[131] <= 25
 -25 <= beta[132] <= 25
 -25 <= beta[133] <= 25
 -25 <= beta[134] <= 25
 -25 <= beta[135] <= 25
 -25 <= beta[136] <= 25
 -25 <= beta[137] <= 25
 -25 <= beta[138] <= 25
 -25 <= beta[139] <= 25
 -25 <= beta[140] <= 25
 -25 <= beta[141] <= 25
 -25 <= beta[142] <= 25
 -25 <= beta[143] <= 25
 -25 <= beta[144] <= 25
 -25 <= beta[145] <= 25
 -25 <= beta[146] <= 25
 -25 <= beta[147] <= 25
 -25 <= beta[148] <= 25
 -25 <= beta[149] <= 25
 -25 <= beta[150] <= 25
 -25 <= beta[151] <= 25
 -25 <= beta[152] <= 25
 -25 <= beta[153] <= 25
 -25 <= beta[154] <= 25
 -25 <= beta[155] <= 25
 -25 <= beta[156] <= 25
 -25 <= beta[157] <= 25
 -25 <= beta[158] <= 25
 -25 <= beta[159] <= 25
 -25 <= beta[160] <= 25
 -25 <= beta[161] <= 25
 -25 <= beta[162] <= 25
 -25 <= beta[163] <= 25
 -25 <= beta[164] <= 25
 -25 <= beta[165] <= 25
 -25 <= beta[166] <= 25
 -25 <= beta[167] <= 25
 -25 <= beta[168] <= 25
 -25 <= beta[169] <= 25
 -25 <= beta[170] <= 25
 -25 <= beta[171] <= 25
 -25 <= beta[172] <= 25
 -25 <= beta[173] <= 25
 -25 <= beta[174] <= 25
 -25 <= beta[175] <= 25
 -25 <= beta[176] <= 25
 -25 <= beta[177] <= 25
 -25 <= beta[178] <= 25
 -25 <= beta[179] <= 25
 -25 <= beta[180] <= 25
 -25 <= beta[181] <= 25
 -25 <= beta[182] <= 25
 -25 <= beta[183] <= 25
 -25 <= beta[184] <= 25
 -25 <= beta[185] <= 25
 -25 <= beta[186] <= 25
 -25 <= beta[187] <= 25
 -25 <= beta[188] <= 25
 -25 <= beta[189] <= 25
 -25 <= beta[190] <= 25
 -25 <= beta[191] <= 25
 -25 <= beta[192] <= 25
 -25 <= beta[193] <= 25
 -25 <= beta[194] <= 25
 -25 <= beta[195] <= 25
 -25 <= beta[196] <= 25
 -25 <= beta[197] <= 25
 -25 <= beta[198] <= 25
 -25 <= beta[199] <= 25
 -25 <= beta[200] <= 25
 -25 <= beta[201] <= 25
 -25 <= beta[202] <= 25
 -25 <= beta[203] <= 25
 -25 <= beta[204] <= 25
 -25 <= beta[205] <= 25
 -25 <= beta[206] <= 25
 -25 <= beta[207] <= 25
 -25 <= beta[208] <= 25
 -25 <= beta[209] <= 25
 -25 <= beta[210] <= 25
 -25 <= beta[211] <= 25
 -25 <= beta[212] <= 25
 -25 <= beta[213] <= 25
 -25 <= beta[214] <= 25
 -25 <= beta[215] <= 25
 -25 <= beta[216] <= 25
 -25 <= beta[217] <= 25
 -25 <= beta[218] <= 25
 -25 <= beta[219] <= 25
 -25 <= beta[220] <= 25
 -25 <= beta[221] <= 25
 -25 <= beta[222] <= 25
 -25 <= beta[223] <= 25
 -25 <= beta[224] <= 25
 -25 <= beta[225] <= 25
 -25 <= beta[226] <= 25
 -25 <= beta[227] <= 25
 -25 <= beta[228] <= 25
 -25 <= beta[229] <= 25
 -25 <= beta[230] <= 25
 -25 <= beta[231] <= 25
 -25 <= beta[232] <= 25
 -25 <= beta[233] <= 25
 -25 <= beta[234] <= 25
 -25 <= beta[235] <= 25
 -25 <= beta[236] <= 25
 -25 <= beta[237] <= 25
 -25 <= beta[238] <= 25
 -25 <= beta[239] <= 25
 -25 <= beta[240] <= 25
 -25 <= beta[241] <= 25
 -25 <= beta[242] <= 25
 -25 <= beta[243] <= 25
 -25 <= beta[244] <= 25
 -25 <= beta[245] <= 25
 -25 <= beta[246] <= 25
 -25 <= beta[247] <= 25
 -25 <= beta[248] <= 25
 -25 <= beta[249] <= 25
 -25 <= beta[250] <= 25
 -25 <= beta[251] <= 25
 -25 <= beta[252] <= 25
 -25 <= beta[253] <= 25
 -25 <= beta[254] <= 25
 -25 <= beta[255] <= 25
 -25 <= beta[256] <= 25
 -25 <= beta[257] <= 25
 -25 <= beta[258] <= 25
 -25 <= beta[259] <= 25
 -25 <= beta[260] <= 25
 -25 <= beta[261] <= 25
 -25 <= beta[262] <= 25
 -25 <= beta[263] <= 25
 -25 <= beta[264] <= 25
 -25 <= beta[265] <= 25
 -25 <= beta[266] <= 25
 -25 <= beta[267] <= 25
 -25 <= beta[268] <= 25
 -25 <= beta[269] <= 25
 -25 <= beta[270] <= 25
 -25 <= beta[271] <= 25
 -25 <= beta[272] <= 25
 -25 <= beta[273] <= 25
 -25 <= beta[274] <= 25
 -25 <= beta[275] <= 25
 -25 <= beta[276] <= 25
 -25 <= beta[277] <= 25
 -25 <= beta[278] <= 25
 -25 <= beta[279] <= 25
 -25 <= beta[280] <= 25
 -25 <= beta[281] <= 25
 -25 <= beta[282] <= 25
 -25 <= beta[283] <= 25
 -25 <= beta[284] <= 25
 -25 <= beta[285] <= 25
 -25 <= beta[286] <= 25
 -25 <= beta[287] <= 25
 beta[288] <= 1
 1e-08 <= beta[289] <= 0.9999999899999999
 1e-08 <= beta[290] <= 0.9999999899999999
 1e-08 <= beta[291] <= 0.9999999899999999
 weighted_residual[0] free
 weighted_residual[1] free
 weighted_residual[2] free
 weighted_residual[3] free
 weighted_residual[4] free
 weighted_residual[5] free
 weighted_residual[6] free
 weighted_residual[7] free
 weighted_residual[8] free
 weighted_residual[9] free
 weighted_residual[10] free
 weighted_residual[11] free
 weighted_residual[12] free
 weighted_residual[13] free
 weighted_residual[14] free
 weighted_residual[15] free
 weighted_residual[16] free
 weighted_residual[17] free
 weighted_residual[18] free
 weighted_residual[19] free
Binaries
 selected[0] selected[1] selected[2] selected[3] selected[4] selected[5]
 selected[6] selected[7] selected[8] selected[9] selected[10] selected[11]
 selected[12] selected[13] selected[14] selected[15] selected[16]
 selected[17] selected[18] selected[19] selected[20] selected[21]
 selected[22] selected[23] selected[24] selected[25] selected[26]
 selected[27] selected[28] selected[29] selected[30] selected[31]
 selected[32] selected[33] selected[34] selected[35] selected[36]
 selected[37] selected[38] selected[39] selected[40] selected[41]
 selected[42] selected[43] selected[44] selected[45] selected[46]
 selected[47] selected[48] selected[49] selected[50] selected[51]
 selected[52] selected[53] selected[54] selected[55] selected[56]
 selected[57] selected[58] selected[59] selected[60] selected[61]
 selected[62] selected[63] selected[64] selected[65] selected[66]
 selected[67] selected[68] selected[69] selected[70] selected[71]
 selected[72] selected[73] selected[74] selected[75] selected[76]
 selected[77] selected[78] selected[79] selected[80] selected[81]
 selected[82] selected[83] selected[84] selected[85] selected[86]
 selected[87] selected[88] selected[89] selected[90] selected[91]
 selected[92] selected[93] selected[94] selected[95] selected[96]
 selected[97] selected[98] selected[99] selected[100] selected[101]
 selected[102] selected[103] selected[104] selected[105] selected[106]
 selected[107] selected[108] selected[109] selected[110] selected[111]
 selected[112] selected[113] selected[114] selected[115] selected[116]
 selected[117] selected[118] selected[119] selected[120] selected[121]
 selected[122] selected[123] selected[124] selected[125] selected[126]
 selected[127] selected[128] selected[129] selected[130] selected[131]
 selected[132] selected[133] selected[134] selected[135] selected[136]
 selected[137] selected[138] selected[139] selected[140] selected[141]
 selected[142] selected[143] selected[144] selected[145] selected[146]
 selected[147] selected[148] selected[149] selected[150] selected[151]
 selected[152] selected[153] selected[154] selected[155] selected[156]
 selected[157] selected[158] selected[159] selected[160] selected[161]
 selected[162] selected[163] selected[164] selected[165] selected[166]
 selected[167] selected[168] selected[169] selected[170] selected[171]
 selected[172] selected[173] selected[174] selected[175] selected[176]
 selected[177] selected[178] selected[179] selected[180] selected[181]
 selected[182] selected[183] selected[184] selected[185] selected[186]
 selected[187] selected[188] selected[189] selected[190] selected[191]
 selected[192] selected[193] selected[194] selected[195] selected[196]
 selected[197] selected[198] selected[199] selected[200] selected[201]
 selected[202] selected[203] selected[204] selected[205] selected[206]
 selected[207] selected[208] selected[209] selected[210] selected[211]
 selected[212] selected[213] selected[214] selected[215] selected[216]
 selected[217] selected[218] selected[219] selected[220] selected[221]
 selected[222] selected[223] selected[224] selected[225] selected[226]
 selected[227] selected[228] selected[229] selected[230] selected[231]
 selected[232] selected[233] selected[234] selected[235] selected[236]
 selected[237] selected[238] selected[239] selected[240] selected[241]
 selected[242] selected[243] selected[244] selected[245] selected[246]
 selected[247] selected[248] selected[249] selected[250] selected[251]
 selected[252] selected[253] selected[254] selected[255] selected[256]
 selected[257] selected[258] selected[259] selected[260] selected[261]
 selected[262] selected[263] selected[264] selected[265] selected[266]
 selected[267] selected[268] selected[269] selected[270] selected[271]
 selected[272] selected[273] selected[274] selected[275] selected[276]
 selected[277] selected[278] selected[279] selected[280] selected[281]
 selected[282] selected[283] selected[284] selected[285] selected[286]
 selected[287] selected[288] selected[289] selected[290] selected[291]
End
